Geometry optimization + ground-state NBO analysis                       
FOpt      RB3LYP                                                      6-311+G(d,p)        
Number of atoms                            I                5
Info1-9                                    I   N=           9
          14          14           0           0           0         110
           2          18        -502
Full Title                                 C   N=           5
Geometry optimization + ground-state NBO analysis           
Route                                      C   N=           5
#p B3LYP/6-311+G(d,p) OPT Pop=(Full,NBORead,SaveNBOs)       
Charge                                     I                0
Multiplicity                               I                1
Number of electrons                        I               10
Number of alpha electrons                  I                5
Number of beta electrons                   I                5
Number of basis functions                  I               46
Number of independent functions            I               46
Number of point charges in /Mol/           I                0
Number of translation vectors              I                0
Atomic numbers                             I   N=           5
           6           1           1           1           1
Nuclear charges                            R   N=           5
  6.00000000E+00  1.00000000E+00  1.00000000E+00  1.00000000E+00  1.00000000E+00
Current cartesian coordinates              R   N=          15
  0.00000000E+00  0.00000000E+00  0.00000000E+00  1.19023187E+00  1.19023187E+00
  1.19023187E+00 -1.19023187E+00 -1.19023187E+00  1.19023187E+00  1.19023187E+00
 -1.19023187E+00 -1.19023187E+00 -1.19023187E+00  1.19023187E+00 -1.19023187E+00
Number of symbols in /Mol/                 I                0
Force Field                                I                0
Atom Types                                 C   N=           5
                                                            
Int Atom Types                             I   N=           5
           0           0           0           0           0
MM charges                                 R   N=           5
  0.00000000E+00  0.00000000E+00  0.00000000E+00  0.00000000E+00  0.00000000E+00
Integer atomic weights                     I   N=           5
          12           1           1           1           1
Real atomic weights                        R   N=           5
  1.20000000E+01  1.00782504E+00  1.00782504E+00  1.00782504E+00  1.00782504E+00
Atom fragment info                         I   N=           5
           0           0           0           0           0
Atom residue num                           I   N=           5
           0           0           0           0           0
Nuclear spins                              I   N=           5
           0           1           1           1           1
Nuclear ZEff                               R   N=           5
 -3.60000000E+00 -1.00000000E+00 -1.00000000E+00 -1.00000000E+00 -1.00000000E+00
Nuclear ZNuc                               R   N=           5
  6.00000000E+00  1.00000000E+00  1.00000000E+00  1.00000000E+00  1.00000000E+00
Nuclear QMom                               R   N=           5
  0.00000000E+00  0.00000000E+00  0.00000000E+00  0.00000000E+00  0.00000000E+00
Nuclear GFac                               R   N=           5
  0.00000000E+00  2.79284600E+00  2.79284600E+00  2.79284600E+00  2.79284600E+00
MicOpt                                     I   N=           5
          -1          -1          -1          -1          -1
Number of residues                         I                0
Number of secondary structures             I                0
Redundant internal dimensions              I   N=           4
          14           4           6           4
Redundant internal coordinate indices      I   N=          56
           1           2           0           0           1           3
           0           0           1           4           0           0
           1           5           0           0           2           1
           3           0           2           1           4           0
           2           1           5           0           3           1
           4           0           3           1           5           0
           4           1           5           0           2           1
           4           3           2           1           5           3
           2           1           5           4           3           1
           5           4
Redundant internal coordinates             R   N=          14
  2.06154207E+00  2.06154207E+00  2.06154207E+00  2.06154207E+00  1.91063324E+00
  1.91063324E+00  1.91063324E+00  1.91063324E+00  1.91063324E+00  1.91063324E+00
  2.09439510E+00 -2.09439510E+00  2.09439510E+00 -2.09439510E+00
ZRed-IntVec                                I   N=          14
           0           0           0           0           0           0
           0           0           0           0           0           0
           0           0
ZRed-FPVec                                 R   N=          14
  0.00000000E+00  0.00000000E+00  0.00000000E+00  0.00000000E+00  0.00000000E+00
  0.00000000E+00  0.00000000E+00  0.00000000E+00  0.00000000E+00  0.00000000E+00
  0.00000000E+00  0.00000000E+00  0.00000000E+00  0.00000000E+00
ZRed-Constraint1                           R   N=          14
  2.05791175E+00  2.05791167E+00  2.05791252E+00  2.05791252E+00  1.91063325E+00
  1.91063310E+00  1.91063310E+00  1.91063353E+00  1.91063353E+00  1.91063289E+00
  2.09439522E+00 -2.09439522E+00  2.09439465E+00 -2.09439544E+00
ZRed-Constraint2                           R   N=          14
  0.00000000E+00  0.00000000E+00  0.00000000E+00  0.00000000E+00  0.00000000E+00
  0.00000000E+00  0.00000000E+00  0.00000000E+00  0.00000000E+00  0.00000000E+00
  0.00000000E+00  0.00000000E+00  0.00000000E+00  0.00000000E+00
SymInf integers                            I   N=          26
           4           4           1           1           1           1
          -1          -1          -1           1          -1          -1
          -1           1           0           0           0           0
           0           0           0           0           0           0
           0           0
RotTr to input orientation                 R   N=          12
 -4.08248794E-01  7.07106719E-01  5.77349990E-01 -4.08248517E-01 -7.07106844E-01
  5.77350032E-01  8.16496216E-01  1.76930955E-07  5.77350785E-01 -1.88972613E-07
 -6.66133815E-17 -5.55111512E-17
Number of contracted shells                I               22
Number of primitive shells                 I               37
Pure/Cartesian d shells                    I                0
Pure/Cartesian f shells                    I                0
Highest angular momentum                   I                2
Largest degree of contraction              I                6
Shell types                                I   N=          22
           0          -1          -1          -1          -1          -2
           0           0           0           1           0           0
           0           1           0           0           0           1
           0           0           0           1
Number of primitives per shell             I   N=          22
           6           3           1           1           1           1
           3           1           1           1           3           1
           1           1           3           1           1           1
           3           1           1           1
Shell to atom map                          I   N=          22
           1           1           1           1           1           1
           2           2           2           2           3           3
           3           3           4           4           4           4
           5           5           5           5
Primitive exponents                        R   N=          37
  4.56324000E+03  6.82024000E+02  1.54973000E+02  4.44553000E+01  1.30290000E+01
  1.82773000E+00  2.09642000E+01  4.80331000E+00  1.45933000E+00  4.83456000E-01
  1.45585000E-01  4.38000000E-02  6.26000000E-01  3.38650000E+01  5.09479000E+00
  1.15879000E+00  3.25840000E-01  1.02741000E-01  7.50000000E-01  3.38650000E+01
  5.09479000E+00  1.15879000E+00  3.25840000E-01  1.02741000E-01  7.50000000E-01
  3.38650000E+01  5.09479000E+00  1.15879000E+00  3.25840000E-01  1.02741000E-01
  7.50000000E-01  3.38650000E+01  5.09479000E+00  1.15879000E+00  3.25840000E-01
  1.02741000E-01  7.50000000E-01
Contraction coefficients                   R   N=          37
  1.96665025E-03  1.52306019E-02  7.61269097E-02  2.60801033E-01  6.16462078E-01
  2.21006028E-01  1.14660081E-01  9.19999648E-01 -3.03068213E-03  1.00000000E+00
  1.00000000E+00  1.00000000E+00  1.00000000E+00  2.54938145E-02  1.90373109E-01
  8.52161486E-01  1.00000000E+00  1.00000000E+00  1.00000000E+00  2.54938145E-02
  1.90373109E-01  8.52161486E-01  1.00000000E+00  1.00000000E+00  1.00000000E+00
  2.54938145E-02  1.90373109E-01  8.52161486E-01  1.00000000E+00  1.00000000E+00
  1.00000000E+00  2.54938145E-02  1.90373109E-01  8.52161486E-01  1.00000000E+00
  1.00000000E+00  1.00000000E+00
P(S=P) Contraction coefficients            R   N=          37
  0.00000000E+00  0.00000000E+00  0.00000000E+00  0.00000000E+00  0.00000000E+00
  0.00000000E+00  4.02486927E-02  2.37593957E-01  8.15853851E-01  1.00000000E+00
  1.00000000E+00  1.00000000E+00  0.00000000E+00  0.00000000E+00  0.00000000E+00
  0.00000000E+00  0.00000000E+00  0.00000000E+00  0.00000000E+00  0.00000000E+00
  0.00000000E+00  0.00000000E+00  0.00000000E+00  0.00000000E+00  0.00000000E+00
  0.00000000E+00  0.00000000E+00  0.00000000E+00  0.00000000E+00  0.00000000E+00
  0.00000000E+00  0.00000000E+00  0.00000000E+00  0.00000000E+00  0.00000000E+00
  0.00000000E+00  0.00000000E+00
Coordinates of each shell                  R   N=          66
  0.00000000E+00  0.00000000E+00  0.00000000E+00  0.00000000E+00  0.00000000E+00
  0.00000000E+00  0.00000000E+00  0.00000000E+00  0.00000000E+00  0.00000000E+00
  0.00000000E+00  0.00000000E+00  0.00000000E+00  0.00000000E+00  0.00000000E+00
  0.00000000E+00  0.00000000E+00  0.00000000E+00  1.19023187E+00  1.19023187E+00
  1.19023187E+00  1.19023187E+00  1.19023187E+00  1.19023187E+00  1.19023187E+00
  1.19023187E+00  1.19023187E+00  1.19023187E+00  1.19023187E+00  1.19023187E+00
 -1.19023187E+00 -1.19023187E+00  1.19023187E+00 -1.19023187E+00 -1.19023187E+00
  1.19023187E+00 -1.19023187E+00 -1.19023187E+00  1.19023187E+00 -1.19023187E+00
 -1.19023187E+00  1.19023187E+00  1.19023187E+00 -1.19023187E+00 -1.19023187E+00
  1.19023187E+00 -1.19023187E+00 -1.19023187E+00  1.19023187E+00 -1.19023187E+00
 -1.19023187E+00  1.19023187E+00 -1.19023187E+00 -1.19023187E+00 -1.19023187E+00
  1.19023187E+00 -1.19023187E+00 -1.19023187E+00  1.19023187E+00 -1.19023187E+00
 -1.19023187E+00  1.19023187E+00 -1.19023187E+00 -1.19023187E+00  1.19023187E+00
 -1.19023187E+00
Num ILSW                                   I              100
ILSW                                       I   N=         100
           0           0           0           1           2           0
           0           0           0           0         402          -1
           5           0           0           0           2           0
           0           0           0           0           1           0
           1           0           0           0           0           0
           0           0      100000           0          -1           0
           0           0           0           0           0           0
           0           0           0           1           0           0
           0 -2000000000           1           0           0           0
           0           0           4          52           0           0
           0           0           5           0           0           0
           0           0           0           5           0           1
           0           0           0           0           0           0
           0           0           0           0           0           0
           0           0           0           0           0           0
           0           0           0           0           0           0
           0           0           0           0
Num RLSW                                   I               52
RLSW                                       R   N=          52
  8.00000000E-01  7.20000000E-01  1.00000000E+00  8.10000000E-01  2.00000000E-01
  0.00000000E+00  0.00000000E+00  1.00000000E+00  0.00000000E+00  0.00000000E+00
  0.00000000E+00  0.00000000E+00  1.00000000E+00  0.00000000E+00  0.00000000E+00
  0.00000000E+00  0.00000000E+00  1.00000000E+00  0.00000000E+00  0.00000000E+00
  0.00000000E+00  0.00000000E+00  1.00000000E+00  0.00000000E+00  0.00000000E+00
  0.00000000E+00  0.00000000E+00  1.00000000E+00  0.00000000E+00  0.00000000E+00
  0.00000000E+00  0.00000000E+00  1.00000000E+00  0.00000000E+00  0.00000000E+00
  0.00000000E+00  0.00000000E+00  0.00000000E+00  1.00000000E+00  1.00000000E+00
  0.00000000E+00  1.00000000E+00  0.00000000E+00  0.00000000E+00  0.00000000E+00
  0.00000000E+00  0.00000000E+00  0.00000000E+00  0.00000000E+00  0.00000000E+00
  0.00000000E+00  0.00000000E+00
MxBond                                     I                4
NBond                                      I   N=           5
           4           1           1           1           1
IBond                                      I   N=          20
           2           3           4           5           1           0
           0           0           1           0           0           0
           1           0           0           0           1           0
           0           0
RBond                                      R   N=          20
  1.00000000E+00  1.00000000E+00  1.00000000E+00  1.00000000E+00  1.00000000E+00
  0.00000000E+00  0.00000000E+00  0.00000000E+00  1.00000000E+00  0.00000000E+00
  0.00000000E+00  0.00000000E+00  1.00000000E+00  0.00000000E+00  0.00000000E+00
  0.00000000E+00  1.00000000E+00  0.00000000E+00  0.00000000E+00  0.00000000E+00
Virial Ratio                               R      2.006336957786866E+00
SCF Energy                                 R     -4.053392764387866E+01
Total Energy                               R     -4.053392764387866E+01
RMS Force                                  R      2.397395956152096E-06
RMS Density                                R      7.764158751861086E-10
Job Status                                 I                1
Nuclear derivative order                   I                1
External E-field                           R   N=          35
  0.00000000E+00  0.00000000E+00  0.00000000E+00  0.00000000E+00  0.00000000E+00
  0.00000000E+00  0.00000000E+00  0.00000000E+00  0.00000000E+00  0.00000000E+00
  0.00000000E+00  0.00000000E+00  0.00000000E+00  0.00000000E+00  0.00000000E+00
  0.00000000E+00  0.00000000E+00  0.00000000E+00  0.00000000E+00  0.00000000E+00
  0.00000000E+00  0.00000000E+00  0.00000000E+00  0.00000000E+00  0.00000000E+00
  0.00000000E+00  0.00000000E+00  0.00000000E+00  0.00000000E+00  0.00000000E+00
  0.00000000E+00  0.00000000E+00  0.00000000E+00  0.00000000E+00  0.00000000E+00
IOpCl                                      I                0
IROHF                                      I                0
Alpha Orbital Energies                     R   N=          46
 -1.00124514E+01 -5.04618856E-01 -5.04618856E-01 -5.04618856E-01 -5.04618856E-01
  4.02172994E-01  4.02172994E-01  4.02172994E-01  4.02172994E-01  2.32744686E-01
  2.32744686E-01  2.32744686E-01  2.40536834E-01  6.56851600E-01  6.56851600E-01
  6.56851600E-01  7.85955402E-01  1.19231086E+00  1.19231086E+00  1.19231086E+00
  1.19231086E+00  1.66069246E+00  1.66069246E+00  1.66069246E+00  1.66069246E+00
  1.66069246E+00  1.66069246E+00  1.66069246E+00  1.66069246E+00  1.73765322E+00
  1.73765322E+00  1.91558678E+00  1.91558678E+00  1.91558678E+00  1.91558678E+00
  2.18526761E+00  2.18526761E+00  2.18526761E+00  2.18526761E+00  2.22426674E+00
  2.22426674E+00  1.00000000E+03  1.00000000E+03  1.00000000E+03  1.00000000E+03
  1.00000000E+03
Alpha MO coefficients                      R   N=        2116
  5.71841464E-01  4.81507991E-01 -1.07182995E-15  1.11052129E-15 -2.32598529E-14
 -3.88878464E-02 -1.61443648E-15  1.17503074E-15 -4.55371527E-14 -2.91234906E-02
 -1.66492759E-15  1.64433903E-15 -4.41904375E-14 -1.17452137E-02 -4.14947198E-16
  4.62383109E-16 -6.10800643E-15  1.88583754E-17 -2.72576754E-16  5.91948944E-17
 -3.15770172E-18 -2.09645932E-15 -3.22194193E-04 -2.48706557E-02  3.34318335E-03
 -1.52133246E-04 -1.52133246E-04 -1.52133246E-04 -3.22194193E-04 -2.48706557E-02
  3.34318335E-03  1.52133246E-04  1.52133246E-04 -1.52133246E-04 -3.22194193E-04
 -2.48706557E-02  3.34318335E-03 -1.52133246E-04  1.52133246E-04  1.52133246E-04
 -3.22194193E-04 -2.48706557E-02  3.34318335E-03  1.52133246E-04 -1.52133246E-04
  1.52133246E-04 -2.02398944E-02 -6.15516876E-02 -1.00877862E-01  1.00877862E-01
 -1.00877862E-01  2.42654775E-01 -1.43925043E-01  1.43925043E-01 -1.43925043E-01
  1.32822877E-01 -1.05881665E-01  1.05881665E-01 -1.05881665E-01 -2.64147816E-03
 -7.23132593E-03  7.23132593E-03 -7.23132593E-03  1.32048018E-17  1.02583260E-02
 -1.02583260E-02  4.25346650E-17 -1.02583260E-02 -1.19937592E-02 -3.70787575E-02
 -1.86697129E-02 -1.60804929E-03  2.64635231E-03 -1.60804929E-03 -1.19937592E-02
 -3.70787575E-02 -1.86697129E-02 -2.64635231E-03  1.60804929E-03 -1.60804929E-03
 -1.19937592E-02 -3.70787575E-02 -1.86697129E-02 -1.60804929E-03  1.60804929E-03
 -2.64635231E-03  2.01657998E-01  2.61132792E-01  1.01976538E-01  1.14813084E-02
 -1.14813084E-02  1.14813084E-02 -2.02398944E-02 -6.15516876E-02  1.00877862E-01
 -1.00877862E-01 -1.00877862E-01  2.42654775E-01  1.43925043E-01 -1.43925043E-01
 -1.43925043E-01  1.32822877E-01  1.05881665E-01 -1.05881665E-01 -1.05881665E-01
 -2.64147816E-03  7.23132593E-03 -7.23132593E-03 -7.23132593E-03  2.50070002E-17
 -1.02583260E-02  1.02583260E-02 -3.51291027E-17 -1.02583260E-02 -1.19937592E-02
 -3.70787575E-02 -1.86697129E-02  2.64635231E-03 -1.60804929E-03 -1.60804929E-03
 -1.19937592E-02 -3.70787575E-02 -1.86697129E-02  1.60804929E-03 -2.64635231E-03
 -1.60804929E-03  2.01657998E-01  2.61132792E-01  1.01976538E-01 -1.14813084E-02
  1.14813084E-02  1.14813084E-02 -1.19937592E-02 -3.70787575E-02 -1.86697129E-02
  1.60804929E-03 -1.60804929E-03 -2.64635231E-03 -2.02398944E-02 -6.15516875E-02
  1.00877862E-01  1.00877862E-01  1.00877862E-01  2.42654774E-01  1.43925043E-01
  1.43925043E-01  1.43925043E-01  1.32822876E-01  1.05881665E-01  1.05881665E-01
  1.05881665E-01 -2.64147818E-03  7.23132592E-03  7.23132592E-03  7.23132592E-03
  1.33363156E-16  1.02583260E-02  1.02583260E-02 -6.21487784E-17  1.02583260E-02
  2.01657998E-01  2.61132793E-01  1.01976538E-01 -1.14813084E-02 -1.14813084E-02
 -1.14813084E-02 -1.19937592E-02 -3.70787575E-02 -1.86697129E-02  1.60804929E-03
  1.60804929E-03  2.64635230E-03 -1.19937592E-02 -3.70787575E-02 -1.86697129E-02
  2.64635230E-03  1.60804929E-03  1.60804929E-03 -1.19937592E-02 -3.70787575E-02
 -1.86697129E-02  1.60804929E-03  2.64635230E-03  1.60804929E-03 -2.02398944E-02
 -6.15516875E-02 -1.00877862E-01 -1.00877862E-01  1.00877862E-01  2.42654774E-01
 -1.43925043E-01 -1.43925043E-01  1.43925043E-01  1.32822876E-01 -1.05881665E-01
 -1.05881665E-01  1.05881665E-01 -2.64147818E-03 -7.23132592E-03 -7.23132592E-03
  7.23132592E-03 -1.65803479E-17 -1.02583260E-02 -1.02583260E-02 -3.37316411E-16
  1.02583260E-02 -1.19937592E-02 -3.70787575E-02 -1.86697129E-02 -1.60804929E-03
 -1.60804929E-03  2.64635230E-03  2.01657998E-01  2.61132793E-01  1.01976538E-01
  1.14813084E-02  1.14813084E-02 -1.14813084E-02 -1.19937592E-02 -3.70787575E-02
 -1.86697129E-02 -1.60804929E-03 -2.64635230E-03  1.60804929E-03 -1.19937592E-02
 -3.70787575E-02 -1.86697129E-02 -2.64635230E-03 -1.60804929E-03  1.60804929E-03
  3.31576374E-02  1.42899451E-01 -1.55717438E-01 -1.55717438E-01 -1.55717438E-01
 -5.03346234E-01 -3.03012514E-01 -3.03012514E-01 -3.03012514E-01 -5.74625299E-01
 -2.92106010E-01 -2.92106010E-01 -2.92106010E-01 -5.28827021E-02 -4.04517387E-02
 -4.04517387E-02 -4.04517387E-02 -4.35182372E-17 -1.38225227E-02 -1.38225227E-02
  7.51418189E-17 -1.38225227E-02  4.09063634E-01  1.00179104E+00  3.09527744E-01
 -1.64795601E-02 -1.64795601E-02 -1.64795601E-02  5.79155856E-03  2.81477235E-02
  1.46880953E-02  3.67183188E-04  3.67183188E-04 -1.53915597E-03  5.79155856E-03
  2.81477235E-02  1.46880953E-02 -1.53915597E-03  3.67183188E-04  3.67183188E-04
  5.79155856E-03  2.81477235E-02  1.46880953E-02  3.67183188E-04 -1.53915597E-03
  3.67183188E-04  3.31576374E-02  1.42899451E-01  1.55717438E-01  1.55717438E-01
 -1.55717438E-01 -5.03346234E-01  3.03012514E-01  3.03012514E-01 -3.03012514E-01
 -5.74625299E-01  2.92106010E-01  2.92106010E-01 -2.92106010E-01 -5.28827021E-02
  4.04517387E-02  4.04517387E-02 -4.04517387E-02 -2.37263170E-16  1.38225227E-02
  1.38225227E-02 -2.56897834E-16 -1.38225227E-02  5.79155856E-03  2.81477235E-02
  1.46880953E-02 -3.67183188E-04 -3.67183188E-04 -1.53915597E-03  4.09063634E-01
  1.00179104E+00  3.09527744E-01  1.64795601E-02  1.64795601E-02 -1.64795601E-02
  5.79155856E-03  2.81477235E-02  1.46880953E-02 -3.67183188E-04  1.53915597E-03
  3.67183188E-04  5.79155856E-03  2.81477235E-02  1.46880953E-02  1.53915597E-03
 -3.67183188E-04  3.67183188E-04  3.31576374E-02  1.42899451E-01  1.55717438E-01
 -1.55717438E-01  1.55717438E-01 -5.03346234E-01  3.03012514E-01 -3.03012514E-01
  3.03012514E-01 -5.74625299E-01  2.92106010E-01 -2.92106010E-01  2.92106010E-01
 -5.28827021E-02  4.04517387E-02 -4.04517387E-02  4.04517387E-02 -2.55632569E-16
 -1.38225227E-02  1.38225227E-02  1.17601932E-16  1.38225227E-02  5.79155855E-03
  2.81477235E-02  1.46880952E-02 -3.67183187E-04 -1.53915597E-03 -3.67183187E-04
  5.79155855E-03  2.81477235E-02  1.46880952E-02  1.53915597E-03  3.67183187E-04
 -3.67183187E-04  5.79155855E-03  2.81477235E-02  1.46880952E-02 -3.67183187E-04
  3.67183187E-04  1.53915597E-03  4.09063634E-01  1.00179105E+00  3.09527744E-01
  1.64795601E-02 -1.64795601E-02  1.64795601E-02  3.31576374E-02  1.42899451E-01
 -1.55717438E-01  1.55717438E-01  1.55717438E-01 -5.03346234E-01 -3.03012514E-01
  3.03012514E-01  3.03012514E-01 -5.74625299E-01 -2.92106010E-01  2.92106010E-01
  2.92106010E-01 -5.28827021E-02 -4.04517387E-02  4.04517387E-02  4.04517387E-02
 -3.98223283E-16  1.38225227E-02 -1.38225227E-02 -3.59020256E-16  1.38225227E-02
  5.79155855E-03  2.81477235E-02  1.46880952E-02 -1.53915597E-03 -3.67183187E-04
 -3.67183187E-04  5.79155855E-03  2.81477235E-02  1.46880952E-02  3.67183187E-04
  1.53915597E-03 -3.67183187E-04  4.09063634E-01  1.00179105E+00  3.09527744E-01
 -1.64795601E-02  1.64795601E-02  1.64795601E-02  5.79155855E-03  2.81477235E-02
  1.46880952E-02  3.67183187E-04 -3.67183187E-04  1.53915597E-03 -5.95943477E-17
 -4.28650979E-16  2.69519885E-01 -3.68408087E-16  2.05971030E-16  3.58071944E-15
 -2.11036534E-01  2.17633128E-15  8.13823773E-16 -2.52875666E-14  7.15115659E-01
  1.29372943E-16 -7.84642927E-15 -1.87383418E-15 -1.84485941E+00  1.30206346E-15
 -5.08051925E-16  4.08397587E-16  8.83739022E-16  1.14347249E-01 -2.22367463E-16
 -1.02243651E-17  1.83698798E-02 -3.90676831E-01  9.45407713E-01  1.38803936E-02
  3.32217644E-02  3.32217644E-02 -1.83698798E-02  3.90676831E-01 -9.45407713E-01
  1.38803936E-02  3.32217644E-02 -3.32217644E-02  1.83698798E-02 -3.90676831E-01
  9.45407713E-01  1.38803936E-02 -3.32217644E-02 -3.32217644E-02 -1.83698798E-02
  3.90676831E-01 -9.45407713E-01  1.38803936E-02 -3.32217644E-02  3.32217644E-02
 -4.69987108E-16 -4.91618307E-16  8.66173808E-17  2.69519885E-01  4.75326477E-17
  6.42424790E-15  4.84869445E-16 -2.11036534E-01  7.14012556E-16 -2.54395100E-14
  4.07504795E-15  7.15115659E-01 -3.34652858E-15 -2.62069065E-15 -1.83298545E-15
 -1.84485941E+00 -1.94860146E-15 -9.89811303E-17  1.14347249E-01  9.74316522E-16
  2.71455892E-16  4.56925571E-16  1.83698798E-02 -3.90676831E-01  9.45407713E-01
  3.32217644E-02  1.38803936E-02  3.32217644E-02 -1.83698798E-02  3.90676831E-01
 -9.45407713E-01  3.32217644E-02  1.38803936E-02 -3.32217644E-02 -1.83698798E-02
  3.90676831E-01 -9.45407713E-01 -3.32217644E-02  1.38803936E-02  3.32217644E-02
  1.83698798E-02 -3.90676831E-01  9.45407713E-01 -3.32217644E-02  1.38803936E-02
 -3.32217644E-02 -5.19771568E-16  6.13514313E-16 -5.47954786E-16 -4.82767789E-16
  2.69519885E-01  1.60199470E-16  2.96414096E-15  1.22348247E-15 -2.11036534E-01
 -5.95071162E-15 -5.22300439E-15 -3.09512073E-15  7.15115659E-01  3.31837145E-15
 -2.32835531E-15  2.33879761E-16 -1.84485941E+00 -2.63004798E-16  1.22905747E-16
  1.51292421E-15  5.64426734E-16  1.14347249E-01  1.83698798E-02 -3.90676831E-01
  9.45407713E-01  3.32217644E-02  3.32217644E-02  1.38803936E-02  1.83698798E-02
 -3.90676831E-01  9.45407713E-01 -3.32217644E-02 -3.32217644E-02  1.38803936E-02
 -1.83698798E-02  3.90676831E-01 -9.45407713E-01 -3.32217644E-02  3.32217644E-02
  1.38803936E-02 -1.83698798E-02  3.90676831E-01 -9.45407713E-01  3.32217644E-02
 -3.32217644E-02  1.38803936E-02 -1.20049054E-01  1.27475319E-01  1.30419596E-16
  9.74318746E-16 -1.11856572E-15 -1.48233205E-01 -3.28803159E-15 -4.20808265E-15
  4.29491892E-15  2.48784592E+00  8.58558358E-15  1.30458882E-14 -1.39976638E-15
  4.38380821E+00  2.90553756E-15  4.01241145E-15  1.32763514E-15  1.11691173E-16
 -9.52328726E-16 -1.58150115E-15 -4.08957305E-16  1.63356760E-15  5.85244015E-02
  1.79578338E-02 -1.92333308E+00  4.14442514E-02  4.14442514E-02  4.14442514E-02
  5.85244015E-02  1.79578338E-02 -1.92333308E+00 -4.14442514E-02 -4.14442514E-02
  4.14442514E-02  5.85244015E-02  1.79578338E-02 -1.92333308E+00  4.14442514E-02
 -4.14442514E-02 -4.14442514E-02  5.85244015E-02  1.79578338E-02 -1.92333308E+00
 -4.14442514E-02  4.14442514E-02 -4.14442514E-02  5.62336533E-18  6.33069521E-16
 -5.75330072E-01 -6.76406444E-16  7.35107310E-16 -4.09716768E-15 -2.16491561E-01
  2.41648217E-16 -4.58000907E-15  1.07512930E-14  1.74283374E+00 -1.50359230E-15
  1.06552310E-15  2.22191548E-15 -2.84595473E-01  4.35716298E-16  1.84867624E-15
  1.10079820E-16 -1.36291562E-15  1.66533454E-16 -5.13459527E-17 -2.34062490E-15
  6.35176621E-02 -5.05915526E-01 -1.01408436E-01 -1.15185639E-15 -8.04911693E-16
 -2.33840725E-15 -6.35176621E-02  5.05915526E-01  1.01408436E-01  1.09634524E-15
  1.22124533E-15  2.28983499E-16  6.35176621E-02 -5.05915526E-01 -1.01408436E-01
  1.17961196E-15 -1.66533454E-15  2.28983499E-16 -6.35176621E-02  5.05915526E-01
  1.01408436E-01 -4.85722573E-16 -1.11022302E-16 -1.33920652E-15 -1.16921341E-15
  1.46348674E-15 -1.19622779E-15 -4.83118096E-16 -5.75330072E-01 -7.64872722E-16
  1.31185623E-15 -1.18378052E-15 -2.16491561E-01 -4.87219866E-15  2.04401682E-15
  1.60670070E-15  1.74283374E+00 -2.42768009E-15 -8.12981735E-16  2.28585084E-16
 -2.84595473E-01  2.67218513E-16 -1.19450518E-15  3.13350884E-16 -2.66365300E-16
 -3.46944695E-16  6.35176621E-02 -5.05915526E-01 -1.01408436E-01 -8.03268222E-16
 -1.87746338E-16 -7.26158517E-16  6.35176621E-02 -5.05915526E-01 -1.01408436E-01
 -9.55010440E-17  2.56342872E-16 -1.55081009E-16 -6.35176621E-02  5.05915526E-01
  1.01408436E-01 -6.87132645E-17  4.65364022E-16  8.17520908E-19 -6.35176621E-02
  5.05915526E-01  1.01408436E-01  7.22320641E-16 -1.69957088E-15  7.27766339E-16
 -3.50639855E-16  5.69079716E-16 -1.26691907E-16 -5.75330072E-01  3.38993161E-16
 -2.15958356E-15  2.24548602E-15 -2.16491561E-01  2.27677558E-16  4.40670029E-15
 -4.91015935E-16  1.74283374E+00  3.08443696E-15  3.35098002E-16 -6.98125544E-16
 -2.84595473E-01  6.61243289E-16 -3.98085907E-16 -3.12250226E-15  9.22100196E-16
  2.22315117E-16  1.30678726E-16  6.35176621E-02 -5.05915526E-01 -1.01408436E-01
 -2.45574905E-16  9.95139541E-17 -5.39240037E-16 -6.35176621E-02  5.05915526E-01
  1.01408436E-01 -6.89664115E-16 -6.77642163E-16  9.55573671E-16 -6.35176621E-02
  5.05915526E-01  1.01408436E-01  1.00342600E-15 -3.21558559E-16 -1.38977247E-15
  6.35176621E-02 -5.05915526E-01 -1.01408436E-01  1.61404866E-15 -9.04425647E-16
  1.55630592E-15  3.76321781E-02  2.17834043E-01 -6.73339406E-16 -1.13157680E-15
 -2.74328919E-16 -1.60903801E+00  2.58940719E-15 -3.09068394E-15  4.29832252E-15
  5.14039286E+00  5.63456626E-15  4.68774594E-15 -2.58670365E-15 -8.83839294E-02
 -2.20680081E-15  5.46205046E-17 -4.92105834E-15 -1.72799877E-16 -1.52791339E-15
  1.35508576E-15  1.40936032E-16  1.20383994E-15  1.44370067E-01 -1.30393900E+00
 -2.56769112E-01 -2.26443186E-08 -2.26443192E-08 -2.26443184E-08  1.44370067E-01
 -1.30393900E+00 -2.56769112E-01  2.26443183E-08  2.26443176E-08 -2.26443180E-08
  1.44370067E-01 -1.30393900E+00 -2.56769112E-01 -2.26443183E-08  2.26443178E-08
  2.26443180E-08  1.44370067E-01 -1.30393900E+00 -2.56769112E-01  2.26443208E-08
 -2.26443196E-08  2.26443199E-08 -3.31826393E-02  1.30158484E-01  1.21772928E-02
 -1.21772928E-02 -1.21772928E-02 -6.05706100E-01 -4.87843203E-01  4.87843203E-01
  4.87843203E-01  8.52476080E-01  3.20070128E-01 -3.20070128E-01 -3.20070128E-01
  4.03076810E-01  1.29601711E-01 -1.29601711E-01 -1.29601711E-01 -5.87181716E-13
  2.28447934E-01 -2.28447934E-01 -9.37651169E-12  2.28447934E-01 -5.26726973E-02
 -3.98808998E-02  8.26687958E-02  6.52876191E-02  1.39493347E-02  1.39493347E-02
 -5.26726972E-02 -3.98808998E-02  8.26687958E-02 -1.39493347E-02 -6.52876191E-02
  1.39493347E-02  8.21695138E-01  5.21737835E-01 -2.05628744E+00 -5.27507533E-01
  5.27507534E-01  5.27507533E-01 -5.26726973E-02 -3.98808998E-02  8.26687958E-02
 -1.39493347E-02  1.39493347E-02 -6.52876191E-02 -3.31826393E-02  1.30158484E-01
  1.21772928E-02  1.21772928E-02  1.21772928E-02 -6.05706100E-01 -4.87843203E-01
 -4.87843203E-01 -4.87843203E-01  8.52476080E-01  3.20070128E-01  3.20070128E-01
  3.20070128E-01  4.03076810E-01  1.29601711E-01  1.29601711E-01  1.29601711E-01
 -4.60927628E-12 -2.28447934E-01 -2.28447934E-01 -5.75884526E-13 -2.28447934E-01
  8.21695138E-01  5.21737835E-01 -2.05628744E+00 -5.27507533E-01 -5.27507533E-01
 -5.27507533E-01 -5.26726973E-02 -3.98808998E-02  8.26687958E-02 -1.39493347E-02
 -1.39493347E-02  6.52876191E-02 -5.26726972E-02 -3.98808998E-02  8.26687958E-02
  6.52876191E-02 -1.39493347E-02 -1.39493347E-02 -5.26726972E-02 -3.98808998E-02
  8.26687958E-02 -1.39493347E-02  6.52876191E-02 -1.39493347E-02 -3.31826393E-02
  1.30158484E-01 -1.21772928E-02  1.21772928E-02 -1.21772928E-02 -6.05706100E-01
  4.87843203E-01 -4.87843203E-01  4.87843203E-01  8.52476080E-01 -3.20070128E-01
  3.20070128E-01 -3.20070128E-01  4.03076810E-01 -1.29601711E-01  1.29601711E-01
 -1.29601711E-01 -1.51501602E-12 -2.28447934E-01  2.28447934E-01  7.72292590E-13
  2.28447934E-01 -5.26726973E-02 -3.98808998E-02  8.26687958E-02  1.39493347E-02
  6.52876191E-02  1.39493347E-02 -5.26726973E-02 -3.98808998E-02  8.26687958E-02
 -6.52876191E-02 -1.39493347E-02  1.39493347E-02 -5.26726973E-02 -3.98808998E-02
  8.26687958E-02  1.39493347E-02 -1.39493347E-02 -6.52876191E-02  8.21695138E-01
  5.21737835E-01 -2.05628744E+00  5.27507534E-01 -5.27507534E-01  5.27507534E-01
 -3.31826393E-02  1.30158484E-01 -1.21772928E-02 -1.21772928E-02  1.21772928E-02
 -6.05706100E-01  4.87843203E-01  4.87843203E-01 -4.87843203E-01  8.52476080E-01
 -3.20070128E-01 -3.20070128E-01  3.20070128E-01  4.03076810E-01 -1.29601711E-01
 -1.29601711E-01  1.29601711E-01 -4.81785367E-12  2.28447934E-01  2.28447934E-01
 -4.09599381E-12 -2.28447934E-01 -5.26726973E-02 -3.98808998E-02  8.26687958E-02
  1.39493347E-02  1.39493347E-02  6.52876191E-02  8.21695138E-01  5.21737835E-01
 -2.05628744E+00  5.27507533E-01  5.27507534E-01 -5.27507533E-01 -5.26726972E-02
 -3.98808998E-02  8.26687958E-02  1.39493347E-02 -6.52876191E-02 -1.39493347E-02
 -5.26726973E-02 -3.98808998E-02  8.26687958E-02 -6.52876191E-02  1.39493347E-02
 -1.39493347E-02 -1.05533079E-11  3.65806823E-11 -6.16021721E-02  6.21327156E-02
  5.30543518E-04 -1.96115608E-10  2.81601093E-01 -2.84026358E-01 -2.42526579E-03
  2.86802457E-10  5.12059103E-01 -5.16469169E-01 -4.41006580E-03  3.11006015E-10
 -5.82466420E-02  5.87482861E-02  5.01644401E-04 -1.68244140E-03  2.60186430E-02
 -2.57964730E-02 -2.26542912E-01  2.22169915E-04 -3.23864789E-04  4.20599965E-03
  6.15865677E-04 -4.63925400E-02  4.50533092E-02  4.57686322E-05 -3.61637673E-10
  8.76924089E-10 -1.02643147E-09 -8.37826175E-01  8.45041882E-01  7.21570725E-03
  3.79282719E-02 -4.92570684E-01 -7.21249153E-02  5.58522368E-02  5.36002903E-03
 -1.00987017E-01 -3.76044071E-02  4.88364684E-01  7.15090497E-02 -5.31426043E-03
 -5.45944768E-02  1.00905546E-01  1.61667066E-12 -5.63782862E-12  3.61786495E-02
  3.52597212E-02  7.14383707E-02  2.58536464E-11 -1.65382922E-01 -1.61182239E-01
 -3.26565161E-01 -2.31379389E-11 -3.00729767E-01 -2.93091308E-01 -5.93821075E-01
 -2.40848573E-11  3.42079633E-02  3.33390899E-02  6.75470532E-02 -2.26542912E-01
  1.47653308E-02  1.51501404E-02  1.68244140E-03  2.99154712E-02 -4.36088125E-02
  5.66343299E-01  8.29271083E-02 -8.98250173E-02 -9.05041481E-02  6.16280389E-03
  2.06552310E-12 -6.70804523E-11  9.41200312E-11  4.92051149E-01  4.79553177E-01
  9.71604326E-01  2.15239311E-02 -2.79529147E-01 -4.09301989E-02  8.42693844E-02
  3.04176516E-03 -4.73539041E-03  2.20848814E-02 -2.86814152E-01 -4.19969095E-02
  3.12103874E-03  8.50896268E-02 -6.23476376E-03 -3.16937635E-12  1.06834009E-11
 -3.61786495E-02  3.52597212E-02  7.14383707E-02 -5.26800881E-11  1.65382922E-01
 -1.61182239E-01 -3.26565161E-01  5.51665656E-11  3.00729767E-01 -2.93091308E-01
 -5.93821075E-01  7.04761233E-11 -3.42079633E-02  3.33390899E-02  6.75470532E-02
  2.26542912E-01  1.47653308E-02 -1.51501404E-02 -1.68244140E-03  2.99154712E-02
 -2.15239311E-02  2.79529147E-01  4.09301989E-02 -8.42693843E-02  3.04176516E-03
 -4.73539041E-03 -2.20848814E-02  2.86814152E-01  4.19969095E-02 -3.12103874E-03
  8.50896268E-02 -6.23476376E-03  4.36088125E-02 -5.66343299E-01 -8.29271083E-02
  8.98250173E-02 -9.05041481E-02  6.16280389E-03 -7.21041178E-11  2.11815163E-10
 -2.38180517E-10 -4.92051149E-01  4.79553177E-01  9.71604326E-01 -1.60009672E-11
  5.37912516E-11  6.16021721E-02  6.21327156E-02 -5.30543521E-04 -2.78652611E-10
 -2.81601093E-01 -2.84026358E-01  2.42526586E-03  3.41487565E-10 -5.12059103E-01
 -5.16469169E-01  4.41006579E-03  4.28626853E-10  5.82466421E-02  5.87482861E-02
 -5.01644443E-04 -1.68244140E-03  2.60186430E-02  2.57964730E-02 -2.26542912E-01
 -2.22169896E-04 -3.76044071E-02  4.88364684E-01  7.15090497E-02  5.31426044E-03
 -5.45944768E-02 -1.00905546E-01  3.79282719E-02 -4.92570684E-01 -7.21249153E-02
 -5.58522368E-02  5.36002902E-03  1.00987017E-01 -5.30732428E-10  1.27898331E-09
 -1.39654509E-09  8.37826175E-01  8.45041882E-01 -7.21570723E-03 -3.23864792E-04
  4.20599965E-03  6.15865686E-04  4.63925400E-02  4.50533092E-02 -4.57686384E-05
  2.80848013E-12 -9.62419554E-12 -6.16021721E-02  6.21327156E-02 -5.30543515E-04
  5.03592689E-11  2.81601093E-01 -2.84026359E-01  2.42526571E-03 -6.71938326E-11
  5.12059103E-01 -5.16469169E-01  4.41006584E-03 -7.67556704E-11 -5.82466419E-02
  5.87482862E-02 -5.01644320E-04  1.68244140E-03  2.60186430E-02 -2.57964730E-02
  2.26542912E-01 -2.22169940E-04  8.81064336E-11 -2.21157592E-10  2.53964932E-10
 -8.37826175E-01  8.45041882E-01 -7.21570729E-03  3.23864787E-04 -4.20599967E-03
 -6.15865666E-04 -4.63925400E-02  4.50533092E-02 -4.57686232E-05  3.76044071E-02
 -4.88364684E-01 -7.15090497E-02 -5.31426042E-03 -5.45944768E-02 -1.00905546E-01
 -3.79282719E-02  4.92570684E-01  7.21249153E-02  5.58522368E-02  5.36002904E-03
  1.00987017E-01  2.27369759E-12 -7.75596140E-12  6.16021721E-02  6.21327156E-02
  5.30543515E-04  3.92430761E-11 -2.81601093E-01 -2.84026359E-01 -2.42526570E-03
 -4.67996141E-11 -5.12059103E-01 -5.16469169E-01 -4.41006585E-03 -5.51889605E-11
  5.82466419E-02  5.87482862E-02  5.01644313E-04  1.68244140E-03  2.60186430E-02
  2.57964730E-02  2.26542912E-01  2.22169941E-04 -3.79282719E-02  4.92570684E-01
  7.21249153E-02 -5.58522368E-02  5.36002904E-03 -1.00987017E-01  3.76044071E-02
 -4.88364684E-01 -7.15090496E-02  5.31426042E-03 -5.45944768E-02  1.00905546E-01
  3.23864787E-04 -4.20599967E-03 -6.15865666E-04  4.63925400E-02  4.50533092E-02
  4.57686228E-05  5.77032692E-11 -1.61108488E-10  1.85799529E-10  8.37826175E-01
  8.45041882E-01  7.21570729E-03  4.97574379E-12 -1.59096201E-11  3.61786495E-02
 -3.52597212E-02  7.14383707E-02  7.41628037E-11 -1.65382922E-01  1.61182239E-01
 -3.26565161E-01 -4.39153420E-11 -3.00729767E-01  2.93091308E-01 -5.93821075E-01
 -9.44061444E-11  3.42079633E-02 -3.33390899E-02  6.75470533E-02  2.26542912E-01
 -1.47653308E-02  1.51501404E-02 -1.68244140E-03  2.99154712E-02 -2.20848814E-02
  2.86814152E-01  4.19969095E-02  3.12103873E-03 -8.50896269E-02 -6.23476377E-03
 -2.15239311E-02  2.79529147E-01  4.09301988E-02  8.42693844E-02 -3.04176515E-03
 -4.73539041E-03  1.17115780E-10 -3.22950111E-10  3.07559742E-10  4.92051149E-01
 -4.79553177E-01  9.71604326E-01  4.36088126E-02 -5.66343299E-01 -8.29271083E-02
 -8.98250173E-02  9.05041481E-02  6.16280390E-03 -8.72723324E-13  4.58798837E-12
 -3.61786495E-02 -3.52597212E-02  7.14383707E-02 -3.98085634E-11  1.65382922E-01
  1.61182239E-01 -3.26565161E-01  1.41340469E-10  3.00729767E-01  2.93091308E-01
 -5.93821075E-01  9.85449050E-11 -3.42079633E-02 -3.33390899E-02  6.75470533E-02
 -2.26542912E-01 -1.47653308E-02 -1.51501404E-02  1.68244140E-03  2.99154712E-02
 -1.18241289E-10  2.11270501E-10 -3.23014199E-10 -4.92051149E-01 -4.79553177E-01
  9.71604326E-01 -4.36088125E-02  5.66343299E-01  8.29271083E-02  8.98250173E-02
  9.05041481E-02  6.16280389E-03  2.20848814E-02 -2.86814152E-01 -4.19969095E-02
 -3.12103873E-03 -8.50896268E-02 -6.23476377E-03  2.15239311E-02 -2.79529147E-01
 -4.09301989E-02 -8.42693844E-02 -3.04176516E-03 -4.73539041E-03  8.75973710E-16
 -9.18108661E-16  3.46750041E-16  1.10434282E-16  4.33773012E-16 -2.75787109E-16
 -5.28510573E-16 -6.82551344E-16 -8.18862021E-17  4.03584386E-15  2.14619506E-16
  5.97569104E-16 -5.47455656E-16  3.66035650E-15  9.68159780E-16 -2.93719499E-16
 -9.09748492E-16  1.24996626E+00 -3.55111186E-17  2.62342202E-16 -5.55111512E-16
  1.01499828E-16  5.59166706E-16 -1.25000574E-15 -9.68113555E-16  9.63738723E-02
  9.63738723E-02 -1.92747745E-01 -6.48639136E-17 -5.09087593E-16 -2.01967267E-16
 -9.63738723E-02 -9.63738723E-02 -1.92747745E-01 -3.04360588E-16  5.49071808E-16
 -3.81900245E-15  9.63738723E-02 -9.63738723E-02  1.92747745E-01  4.11717897E-17
  4.19915789E-17 -2.53623230E-15 -9.63738723E-02  9.63738723E-02  1.92747745E-01
  9.47863139E-16 -1.21439171E-15  4.17468478E-16  3.59379053E-16 -3.48843929E-16
  1.69624745E-15 -1.38967356E-15 -1.91181578E-16  1.04057383E-15 -2.06428141E-15
  1.09071256E-15 -6.84669037E-16 -6.45391418E-17 -3.39945647E-16 -4.09603733E-16
  4.04273342E-16  7.50623483E-16  5.55111512E-16 -5.15485380E-17 -8.50292640E-16
  1.24996626E+00  2.18213747E-16  3.31305418E-16 -8.60454720E-16  5.66797434E-16
 -1.66924443E-01  1.66924443E-01  2.42098272E-16 -8.50844092E-16 -3.40898614E-16
  3.36790355E-17  1.66924443E-01 -1.66924443E-01  4.50310304E-16 -1.38675965E-16
  2.72931933E-16  7.75231240E-16 -1.66924443E-01 -1.66924443E-01  4.19456516E-16
  4.05046242E-17 -1.11347841E-15  2.09469497E-15  1.66924443E-01  1.66924443E-01
 -2.45303839E-16  4.68974546E-02 -1.58073688E-01 -2.11115874E-02 -2.11115874E-02
 -2.11115874E-02  7.98611330E-01  5.48999949E-01  5.48999949E-01  5.48999949E-01
 -9.11341830E-01 -2.14785661E-01 -2.14785661E-01 -2.14785661E-01 -1.14528537E+00
 -3.98853109E-01 -3.98853109E-01 -3.98853109E-01 -1.91639727E-11  1.72128391E-01
  1.72128391E-01 -1.50443572E-11  1.72128391E-01  1.29223952E+00 -3.42074425E+00
  3.80252259E+00  2.82102662E-01  2.82102661E-01  2.82102662E-01  2.33727592E-02
  7.53551029E-02 -7.64683587E-02  2.81028203E-02  2.81028203E-02 -5.75103525E-02
  2.33727592E-02  7.53551029E-02 -7.64683587E-02 -5.75103525E-02  2.81028203E-02
  2.81028203E-02  2.33727592E-02  7.53551028E-02 -7.64683587E-02  2.81028203E-02
 -5.75103525E-02  2.81028203E-02  4.68974546E-02 -1.58073688E-01  2.11115874E-02
  2.11115874E-02 -2.11115874E-02  7.98611330E-01 -5.48999949E-01 -5.48999949E-01
  5.48999949E-01 -9.11341829E-01  2.14785661E-01  2.14785661E-01 -2.14785661E-01
 -1.14528537E+00  3.98853109E-01  3.98853109E-01 -3.98853109E-01  2.82588674E-12
 -1.72128391E-01 -1.72128391E-01 -6.16261388E-11  1.72128391E-01  2.33727592E-02
  7.53551028E-02 -7.64683587E-02 -2.81028203E-02 -2.81028203E-02 -5.75103525E-02
  1.29223952E+00 -3.42074425E+00  3.80252259E+00 -2.82102662E-01 -2.82102661E-01
  2.82102662E-01  2.33727592E-02  7.53551027E-02 -7.64683587E-02 -2.81028203E-02
  5.75103525E-02  2.81028203E-02  2.33727592E-02  7.53551030E-02 -7.64683587E-02
  5.75103525E-02 -2.81028203E-02  2.81028204E-02  4.68974546E-02 -1.58073688E-01
 -2.11115874E-02  2.11115874E-02  2.11115874E-02  7.98611330E-01  5.48999949E-01
 -5.48999949E-01 -5.48999949E-01 -9.11341829E-01 -2.14785661E-01  2.14785661E-01
  2.14785661E-01 -1.14528537E+00 -3.98853109E-01  3.98853109E-01  3.98853109E-01
 -2.03432726E-11 -1.72128391E-01  1.72128391E-01 -8.73116736E-11 -1.72128391E-01
  2.33727592E-02  7.53551030E-02 -7.64683587E-02 -5.75103525E-02 -2.81028203E-02
 -2.81028204E-02  2.33727592E-02  7.53551026E-02 -7.64683587E-02  2.81028203E-02
  5.75103525E-02 -2.81028203E-02  1.29223952E+00 -3.42074425E+00  3.80252259E+00
  2.82102662E-01 -2.82102661E-01 -2.82102662E-01  2.33727592E-02  7.53551029E-02
 -7.64683587E-02  2.81028203E-02 -2.81028203E-02  5.75103525E-02  4.68974546E-02
 -1.58073688E-01  2.11115874E-02 -2.11115874E-02  2.11115874E-02  7.98611330E-01
 -5.48999949E-01  5.48999949E-01 -5.48999949E-01 -9.11341829E-01  2.14785661E-01
 -2.14785661E-01  2.14785661E-01 -1.14528537E+00  3.98853109E-01 -3.98853109E-01
  3.98853109E-01  1.34528328E-11  1.72128391E-01 -1.72128391E-01 -1.07190959E-11
 -1.72128391E-01  2.33727592E-02  7.53551028E-02 -7.64683587E-02 -2.81028203E-02
 -5.75103525E-02 -2.81028203E-02  2.33727592E-02  7.53551029E-02 -7.64683587E-02
  5.75103525E-02  2.81028203E-02 -2.81028203E-02  2.33727592E-02  7.53551028E-02
 -7.64683587E-02 -2.81028203E-02  2.81028203E-02  5.75103525E-02  1.29223952E+00
 -3.42074425E+00  3.80252259E+00 -2.82102662E-01  2.82102662E-01 -2.82102662E-01
  8.25251176E-02 -2.08700431E-01  5.74472179E-02 -5.74472179E-02  5.74472179E-02
  5.18075258E-01 -9.72373412E-01  9.72373412E-01 -9.72373412E-01  2.82533809E+00
 -4.46751529E-01  4.46751529E-01 -4.46751529E-01  3.58924123E-01 -1.06083542E-01
  1.06083542E-01 -1.06083542E-01  4.00229515E-13  4.23471172E-01 -4.23471172E-01
  9.44170631E-14 -4.23471172E-01  9.07633099E-02 -2.19911703E-01 -1.63975707E-01
 -9.90418581E-05 -1.08843487E-01 -9.90418580E-05  9.07633099E-02 -2.19911703E-01
 -1.63975707E-01  1.08843487E-01  9.90418580E-05 -9.90418579E-05  9.07633099E-02
 -2.19911703E-01 -1.63975707E-01 -9.90418577E-05  9.90418578E-05  1.08843487E-01
  2.45587513E-01 -2.26616316E+00 -1.55119034E+00 -1.14674014E+00  1.14674014E+00
 -1.14674014E+00  8.25251177E-02 -2.08700431E-01 -5.74472179E-02  5.74472179E-02
  5.74472179E-02  5.18075258E-01  9.72373412E-01 -9.72373412E-01 -9.72373412E-01
  2.82533809E+00  4.46751529E-01 -4.46751529E-01 -4.46751529E-01  3.58924123E-01
  1.06083542E-01 -1.06083542E-01 -1.06083542E-01 -2.66033570E-12 -4.23471172E-01
  4.23471172E-01  2.02083690E-12 -4.23471172E-01  9.07633099E-02 -2.19911703E-01
 -1.63975707E-01 -1.08843487E-01 -9.90418579E-05 -9.90418584E-05  9.07633099E-02
 -2.19911703E-01 -1.63975707E-01  9.90418589E-05  1.08843487E-01 -9.90418602E-05
  2.45587513E-01 -2.26616316E+00 -1.55119034E+00  1.14674014E+00 -1.14674014E+00
 -1.14674014E+00  9.07633099E-02 -2.19911703E-01 -1.63975707E-01  9.90418601E-05
 -9.90418609E-05  1.08843487E-01  8.25251177E-02 -2.08700431E-01  5.74472179E-02
  5.74472179E-02 -5.74472179E-02  5.18075258E-01 -9.72373412E-01 -9.72373412E-01
  9.72373412E-01  2.82533809E+00 -4.46751529E-01 -4.46751529E-01  4.46751529E-01
  3.58924123E-01 -1.06083542E-01 -1.06083542E-01  1.06083542E-01  6.80295563E-13
 -4.23471172E-01 -4.23471172E-01  4.36715255E-12  4.23471172E-01  9.07633099E-02
 -2.19911703E-01 -1.63975707E-01 -9.90418585E-05 -9.90418602E-05 -1.08843487E-01
  2.45587513E-01 -2.26616316E+00 -1.55119034E+00 -1.14674014E+00 -1.14674014E+00
  1.14674014E+00  9.07633099E-02 -2.19911703E-01 -1.63975707E-01 -9.90418609E-05
  1.08843487E-01  9.90418616E-05  9.07633099E-02 -2.19911703E-01 -1.63975707E-01
  1.08843487E-01 -9.90418588E-05  9.90418577E-05  8.25251177E-02 -2.08700431E-01
 -5.74472179E-02 -5.74472179E-02 -5.74472179E-02  5.18075258E-01  9.72373412E-01
  9.72373412E-01  9.72373412E-01  2.82533809E+00  4.46751529E-01  4.46751529E-01
  4.46751529E-01  3.58924123E-01  1.06083542E-01  1.06083542E-01  1.06083542E-01
  6.58204687E-12  4.23471172E-01  4.23471172E-01  6.24377686E-13  4.23471172E-01
  2.45587513E-01 -2.26616316E+00 -1.55119034E+00  1.14674014E+00  1.14674014E+00
  1.14674014E+00  9.07633099E-02 -2.19911703E-01 -1.63975707E-01  9.90418606E-05
  9.90418609E-05 -1.08843487E-01  9.07633099E-02 -2.19911703E-01 -1.63975707E-01
 -1.08843487E-01  9.90418657E-05  9.90418633E-05  9.07633099E-02 -2.19911703E-01
 -1.63975707E-01  9.90418660E-05 -1.08843487E-01  9.90418638E-05  1.19218836E-15
 -6.10347761E-16  6.92349921E-13 -2.20197538E-01 -9.63067072E-16  3.44476969E-16
  1.35098823E-12  1.40076911E+00  1.39751801E-16 -1.33077711E-14  1.30223576E-12
  7.66488743E-01  8.19465014E-17 -4.84691418E-15  1.80069609E-13 -1.55559572E-01
 -7.12378845E-16 -3.11070689E-17  1.86736367E+00  6.30082814E-14 -2.59892396E-17
  1.64110788E-15 -2.46211411E-01 -1.03992813E+00  1.49897333E-01  2.87526183E-01
  3.25610990E-01  2.87526183E-01  2.46211411E-01  1.03992813E+00 -1.49897333E-01
  2.87526183E-01  3.25610990E-01 -2.87526183E-01  2.46211411E-01  1.03992813E+00
 -1.49897333E-01 -2.87526183E-01  3.25610990E-01  2.87526183E-01 -2.46211411E-01
 -1.03992813E+00  1.49897333E-01 -2.87526183E-01  3.25610990E-01 -2.87526183E-01
 -4.98369376E-16  6.65321204E-16 -2.20197538E-01  6.94165005E-13  2.10493795E-16
  1.11600145E-15  1.40076911E+00  1.34457360E-12 -1.81116582E-15 -8.11176505E-15
  7.66488743E-01  1.30008827E-12 -2.06959423E-15 -2.80206513E-15 -1.55559572E-01
  1.81396513E-13  1.71564162E-16 -1.41299352E-16  5.93900114E-14  1.86736367E+00
  4.55851936E-16  1.24355768E-15 -2.46211411E-01 -1.03992813E+00  1.49897333E-01
  3.25610990E-01  2.87526183E-01  2.87526183E-01  2.46211411E-01  1.03992813E+00
 -1.49897333E-01  3.25610990E-01  2.87526183E-01 -2.87526183E-01 -2.46211411E-01
 -1.03992813E+00  1.49897333E-01  3.25610990E-01 -2.87526183E-01 -2.87526183E-01
  2.46211411E-01  1.03992813E+00 -1.49897333E-01  3.25610990E-01 -2.87526183E-01
  2.87526183E-01 -1.47478901E-13 -6.35454912E-13 -7.63609431E-16  6.11489057E-16
 -2.20197538E-01  2.23746685E-12  1.20523395E-15 -1.95633838E-16  1.40076911E+00
  2.55552540E-12 -9.85413925E-16 -7.44229573E-16  7.66488743E-01  2.35863515E-13
 -1.38075025E-15  2.55665427E-16 -1.55559572E-01 -7.86879620E-17 -1.48462589E-15
 -8.57039024E-16  2.15530875E-16  1.86736367E+00 -2.46211411E-01 -1.03992813E+00
  1.49897333E-01  2.87526183E-01  2.87526183E-01  3.25610990E-01 -2.46211411E-01
 -1.03992813E+00  1.49897333E-01 -2.87526183E-01 -2.87526183E-01  3.25610990E-01
  2.46211411E-01  1.03992813E+00 -1.49897333E-01 -2.87526183E-01  2.87526183E-01
  3.25610990E-01  2.46211411E-01  1.03992813E+00 -1.49897333E-01  2.87526183E-01
 -2.87526183E-01  3.25610990E-01 -1.90776196E-16  1.23614710E-15  1.30438215E+00
 -2.26144290E-16  9.27115646E-17 -6.00254405E-15 -2.73318787E+00  8.15064885E-16
 -1.93273852E-15  1.24807548E-14  1.28184810E+00 -1.40227894E-15  6.78778654E-15
  3.04248158E-15  3.12198147E-01 -3.83564061E-16  5.20777006E-17 -4.07273675E-16
  3.95848809E-16 -4.58262083E-01 -3.71115591E-16  7.46981105E-17  2.00605474E-01
  4.89733115E-01 -7.53255645E-01 -1.52674972E-01 -2.36579794E-01 -2.36579794E-01
 -2.00605474E-01 -4.89733115E-01  7.53255645E-01 -1.52674972E-01 -2.36579794E-01
  2.36579794E-01  2.00605474E-01  4.89733115E-01 -7.53255645E-01 -1.52674972E-01
  2.36579794E-01  2.36579794E-01 -2.00605474E-01 -4.89733115E-01  7.53255645E-01
 -1.52674972E-01  2.36579794E-01 -2.36579794E-01  1.31561066E-16  4.47588688E-16
 -8.07252756E-17  1.30438215E+00  1.30183324E-15 -4.18249187E-15 -9.45057325E-16
 -2.73318787E+00 -5.29249151E-15  1.70283494E-14 -8.04559518E-16  1.28184810E+00
  4.22209036E-15 -2.57399460E-15 -4.66439954E-16  3.12198147E-01  1.31750468E-15
 -7.48098534E-17 -4.58262083E-01 -9.99439104E-16 -8.89104899E-17 -1.80076026E-15
  2.00605474E-01  4.89733115E-01 -7.53255645E-01 -2.36579794E-01 -1.52674972E-01
 -2.36579794E-01 -2.00605474E-01 -4.89733115E-01  7.53255645E-01 -2.36579794E-01
 -1.52674972E-01  2.36579794E-01 -2.00605474E-01 -4.89733115E-01  7.53255645E-01
  2.36579794E-01 -1.52674972E-01 -2.36579794E-01  2.00605474E-01  4.89733115E-01
 -7.53255645E-01  2.36579794E-01 -1.52674972E-01  2.36579794E-01 -1.31706733E-15
  1.65771292E-15 -3.96214560E-16 -8.46756274E-16  1.30438215E+00 -1.63134630E-15
 -1.24206283E-15  4.17141943E-15 -2.73318787E+00  3.58645424E-15  1.63973360E-15
  8.24132609E-16  1.28184810E+00  2.31617880E-15  3.10724018E-16  1.50266894E-16
  3.12198147E-01 -1.04143252E-16  1.53900640E-15 -1.63572316E-15  1.73480476E-16
 -4.58262083E-01  2.00605474E-01  4.89733115E-01 -7.53255645E-01 -2.36579794E-01
 -2.36579794E-01 -1.52674972E-01  2.00605474E-01  4.89733115E-01 -7.53255645E-01
  2.36579794E-01  2.36579794E-01 -1.52674972E-01 -2.00605474E-01 -4.89733115E-01
  7.53255645E-01  2.36579794E-01 -2.36579794E-01 -1.52674972E-01 -2.00605474E-01
 -4.89733115E-01  7.53255645E-01 -2.36579794E-01  2.36579794E-01 -1.52674972E-01
 -2.03376371E+00  2.17014653E+00  1.36437455E-18 -1.01993830E-16 -3.57731245E-16
 -4.16882993E-01  1.33760328E-16  3.75783328E-16  1.15416125E-15  2.28001308E-01
 -5.62917499E-16 -9.65051965E-17 -3.03272870E-15 -2.03756052E-01 -3.71530659E-16
  1.05849565E-15 -1.60773364E-16  8.97708479E-17  9.02252626E-16 -4.27315707E-16
  4.34109260E-16  9.59052238E-17  2.68480668E-02 -7.39011082E-03  4.01494098E-02
 -1.97962237E-02 -1.97962237E-02 -1.97962237E-02  2.68480668E-02 -7.39011082E-03
  4.01494098E-02  1.97962237E-02  1.97962237E-02 -1.97962237E-02  2.68480668E-02
 -7.39011082E-03  4.01494098E-02 -1.97962237E-02  1.97962237E-02  1.97962237E-02
  2.68480668E-02 -7.39011082E-03  4.01494098E-02  1.97962237E-02 -1.97962237E-02
  1.97962237E-02
Orthonormal basis                          R   N=        2116
  3.12965035E-02  3.61093231E-02  0.00000000E+00  0.00000000E+00  0.00000000E+00
  1.13542454E-01  0.00000000E+00  0.00000000E+00  0.00000000E+00  1.48090303E-01
  0.00000000E+00  0.00000000E+00  0.00000000E+00  1.28399054E-01  0.00000000E+00
  0.00000000E+00  0.00000000E+00 -2.44733623E-17  0.00000000E+00  0.00000000E+00
  4.01875479E-17  0.00000000E+00  4.38946602E-02  8.73993840E-02  1.18316519E-01
 -1.66245220E-02 -1.66245220E-02 -1.66245220E-02  4.38946602E-02  8.73993840E-02
  1.18316519E-01  1.66245220E-02  1.66245220E-02 -1.66245220E-02  4.38946602E-02
  8.73993840E-02  1.18316519E-01 -1.66245220E-02  1.66245220E-02  1.66245220E-02
  4.38946602E-02  8.73993840E-02  1.18316519E-01  1.66245220E-02 -1.66245220E-02
  1.66245220E-02  3.85970052E-01  3.96833748E-01  0.00000000E+00  0.00000000E+00
  0.00000000E+00  2.18766521E-01  0.00000000E+00  0.00000000E+00  0.00000000E+00
  1.76482244E-05  0.00000000E+00  0.00000000E+00  0.00000000E+00 -1.18094654E-01
  0.00000000E+00  0.00000000E+00  0.00000000E+00  6.12123201E-17  0.00000000E+00
  0.00000000E+00 -5.94851097E-17  0.00000000E+00 -4.04252334E-02 -2.88139230E-02
 -7.33027361E-02 -7.90760170E-02 -7.90760170E-02 -7.90760170E-02 -4.04252334E-02
 -2.88139230E-02 -7.33027361E-02  7.90760170E-02  7.90760170E-02 -7.90760170E-02
 -4.04252334E-02 -2.88139230E-02 -7.33027361E-02 -7.90760170E-02  7.90760170E-02
  7.90760170E-02 -4.04252334E-02 -2.88139230E-02 -7.33027361E-02  7.90760170E-02
 -7.90760170E-02  7.90760170E-02  1.94012613E-16  1.08329778E-16  0.00000000E+00
  0.00000000E+00  0.00000000E+00  1.15977250E-16  0.00000000E+00  0.00000000E+00
  0.00000000E+00  5.96291174E-17  0.00000000E+00  0.00000000E+00  0.00000000E+00
 -2.01933862E-16  0.00000000E+00  0.00000000E+00  0.00000000E+00 -3.47047499E-01
  0.00000000E+00  0.00000000E+00  4.04912242E-01  0.00000000E+00  7.94265437E-18
  9.59886512E-18 -5.84360579E-17  2.21483899E-01 -7.48467616E-02 -1.46637138E-01
  7.94265437E-18  9.59886512E-18 -5.84360579E-17 -2.21483899E-01  7.48467616E-02
 -1.46637138E-01  7.94265437E-18  9.59886512E-18 -5.84360579E-17  2.21483899E-01
  7.48467616E-02  1.46637138E-01  7.94265437E-18  9.59886512E-18 -5.84360579E-17
 -2.21483899E-01 -7.48467616E-02  1.46637138E-01  2.30104907E-17 -8.23539245E-17
  0.00000000E+00  0.00000000E+00  0.00000000E+00  1.59727758E-16  0.00000000E+00
  0.00000000E+00  0.00000000E+00  5.63321807E-17  0.00000000E+00  0.00000000E+00
  0.00000000E+00 -9.22968061E-17  0.00000000E+00  0.00000000E+00  0.00000000E+00
 -4.04912242E-01  0.00000000E+00  0.00000000E+00 -3.47047499E-01  0.00000000E+00
  1.66859273E-17  3.04357643E-17 -4.39382320E-17 -4.14481929E-02  2.12534780E-01
 -1.71086587E-01  1.66859273E-17  3.04357643E-17 -4.39382320E-17  4.14481929E-02
 -2.12534780E-01 -1.71086587E-01  1.66859273E-17  3.04357643E-17 -4.39382320E-17
 -4.14481929E-02 -2.12534780E-01  1.71086587E-01  1.66859273E-17  3.04357643E-17
 -4.39382320E-17  4.14481929E-02  2.12534780E-01  1.71086587E-01  3.67710748E-01
  3.31380479E-01  0.00000000E+00  0.00000000E+00  0.00000000E+00 -2.73725866E-01
  0.00000000E+00  0.00000000E+00  0.00000000E+00 -7.69436994E-02  0.00000000E+00
  0.00000000E+00  0.00000000E+00  1.43727690E-01  0.00000000E+00  0.00000000E+00
  0.00000000E+00  1.20778645E-16  0.00000000E+00  0.00000000E+00 -2.34714363E-16
  0.00000000E+00  1.60014657E-02  6.96147505E-03  6.71438885E-02  1.82834917E-01
  1.82834917E-01  1.82834917E-01  1.60014657E-02  6.96147505E-03  6.71438885E-02
 -1.82834917E-01 -1.82834917E-01  1.82834917E-01  1.60014657E-02  6.96147505E-03
  6.71438885E-02  1.82834917E-01 -1.82834917E-01 -1.82834917E-01  1.60014657E-02
  6.96147505E-03  6.71438885E-02 -1.82834917E-01  1.82834917E-01 -1.82834917E-01
  1.32396530E-02  6.29594238E-03  0.00000000E+00  0.00000000E+00  0.00000000E+00
  1.10152810E-01  0.00000000E+00  0.00000000E+00  0.00000000E+00 -2.98799074E-03
  0.00000000E+00  0.00000000E+00  0.00000000E+00 -3.83679103E-01  0.00000000E+00
  0.00000000E+00  0.00000000E+00  9.50731251E-17  0.00000000E+00  0.00000000E+00
 -2.06679077E-17  0.00000000E+00  4.43734472E-01  1.42004440E-01 -1.74480081E-01
  4.22136715E-02  4.22136715E-02  4.22136715E-02  4.43734472E-01  1.42004440E-01
 -1.74480081E-01 -4.22136715E-02 -4.22136715E-02  4.22136715E-02  4.43734472E-01
  1.42004440E-01 -1.74480081E-01  4.22136715E-02 -4.22136715E-02 -4.22136715E-02
  4.43734472E-01  1.42004440E-01 -1.74480081E-01 -4.22136715E-02  4.22136715E-02
 -4.22136715E-02 -2.42359177E-16  2.52729205E-16  0.00000000E+00  0.00000000E+00
  0.00000000E+00 -5.64559909E-16  0.00000000E+00  0.00000000E+00  0.00000000E+00
 -1.36493545E-16  0.00000000E+00  0.00000000E+00  0.00000000E+00  2.40488107E-16
  0.00000000E+00  0.00000000E+00  0.00000000E+00  8.27960049E-01  0.00000000E+00
  0.00000000E+00 -8.93196508E-01  0.00000000E+00 -1.25696382E-16  3.67349888E-16
 -8.04578901E-17  4.68415541E-01 -1.41825396E-01 -3.26590145E-01 -1.25696382E-16
  3.67349888E-16 -8.04578901E-17 -4.68415541E-01  1.41825396E-01 -3.26590145E-01
 -1.25696382E-16  3.67349888E-16 -8.04578901E-17  4.68415541E-01  1.41825396E-01
  3.26590145E-01 -1.25696382E-16  3.67349888E-16 -8.04578901E-17 -4.68415541E-01
 -1.41825396E-01  3.26590145E-01 -9.31877067E-17  1.28046874E-16  0.00000000E+00
  0.00000000E+00  0.00000000E+00 -2.29350176E-16  0.00000000E+00  0.00000000E+00
  0.00000000E+00  2.24399880E-16  0.00000000E+00  0.00000000E+00  0.00000000E+00
 -2.81516296E-18  0.00000000E+00  0.00000000E+00  0.00000000E+00  8.93196508E-01
  0.00000000E+00  0.00000000E+00  8.27960049E-01  0.00000000E+00 -2.24353208E-16
  6.01244987E-17 -7.01040116E-18 -1.06673978E-01  4.58996747E-01 -3.52322769E-01
 -2.24353208E-16  6.01244987E-17 -7.01040116E-18  1.06673978E-01 -4.58996747E-01
 -3.52322769E-01 -2.24353208E-16  6.01244987E-17 -7.01040116E-18 -1.06673978E-01
 -4.58996747E-01  3.52322769E-01 -2.24353208E-16  6.01244987E-17 -7.01040116E-18
  1.06673978E-01  4.58996747E-01  3.52322769E-01  3.64551748E-01 -9.23959206E-02
  0.00000000E+00  0.00000000E+00  0.00000000E+00 -7.72291887E-01  0.00000000E+00
  0.00000000E+00  0.00000000E+00 -4.42561660E-01  0.00000000E+00  0.00000000E+00
  0.00000000E+00  8.41838893E-01  0.00000000E+00  0.00000000E+00  0.00000000E+00
  5.19145679E-16  0.00000000E+00  0.00000000E+00  3.18372873E-16  0.00000000E+00
  4.61921249E-01 -3.99046764E-01  1.02600838E-01 -2.35132638E-01 -2.35132638E-01
 -2.35132638E-01  4.61921249E-01 -3.99046764E-01  1.02600838E-01  2.35132638E-01
  2.35132638E-01 -2.35132638E-01  4.61921249E-01 -3.99046764E-01  1.02600838E-01
 -2.35132638E-01  2.35132638E-01  2.35132638E-01  4.61921249E-01 -3.99046764E-01
  1.02600838E-01  2.35132638E-01 -2.35132638E-01  2.35132638E-01  1.64849099E+00
 -1.50217889E+00  0.00000000E+00  0.00000000E+00  0.00000000E+00 -9.30238994E-01
  0.00000000E+00  0.00000000E+00  0.00000000E+00  5.29746790E-01  0.00000000E+00
  0.00000000E+00  0.00000000E+00 -7.90939007E-01  0.00000000E+00  0.00000000E+00
  0.00000000E+00 -3.22538337E-16  0.00000000E+00  0.00000000E+00 -3.40849167E-16
  0.00000000E+00 -1.77262723E-01  3.35795278E-01  5.28956057E-02 -1.00626379E-01
 -1.00626379E-01 -1.00626379E-01 -1.77262723E-01  3.35795278E-01  5.28956057E-02
  1.00626379E-01  1.00626379E-01 -1.00626379E-01 -1.77262723E-01  3.35795278E-01
  5.28956057E-02 -1.00626379E-01  1.00626379E-01  1.00626379E-01 -1.77262723E-01
  3.35795278E-01  5.28956057E-02  1.00626379E-01 -1.00626379E-01  1.00626379E-01
  1.15794502E+00 -1.64170321E+00  0.00000000E+00  0.00000000E+00  0.00000000E+00
  2.26798140E+00  0.00000000E+00  0.00000000E+00  0.00000000E+00 -8.61952115E-01
  0.00000000E+00  0.00000000E+00  0.00000000E+00  1.28554781E+00  0.00000000E+00
  0.00000000E+00  0.00000000E+00  1.12178357E-15  0.00000000E+00  0.00000000E+00
 -1.46840808E-16  0.00000000E+00  4.69055556E-02 -2.90900283E-01 -2.68428930E-01
  2.57584704E-01  2.57584704E-01  2.57584704E-01  4.69055556E-02 -2.90900283E-01
 -2.68428930E-01 -2.57584704E-01 -2.57584704E-01  2.57584704E-01  4.69055556E-02
 -2.90900283E-01 -2.68428930E-01  2.57584704E-01 -2.57584704E-01 -2.57584704E-01
  4.69055556E-02 -2.90900283E-01 -2.68428930E-01 -2.57584704E-01  2.57584704E-01
 -2.57584704E-01 -2.19824877E-01  4.58045508E-01  0.00000000E+00  0.00000000E+00
  0.00000000E+00 -1.25596319E+00  0.00000000E+00  0.00000000E+00  0.00000000E+00
 -2.19606770E+00  0.00000000E+00  0.00000000E+00  0.00000000E+00  3.14038979E+00
  0.00000000E+00  0.00000000E+00  0.00000000E+00 -6.45437733E-16  0.00000000E+00
  0.00000000E+00 -1.96260567E-16  0.00000000E+00 -5.13905813E-01  2.33135637E+00
 -1.54091959E+00 -2.97742145E-01 -2.97742145E-01 -2.97742145E-01 -5.13905813E-01
  2.33135637E+00 -1.54091959E+00  2.97742145E-01  2.97742145E-01 -2.97742145E-01
 -5.13905813E-01  2.33135637E+00 -1.54091959E+00 -2.97742145E-01  2.97742145E-01
  2.97742145E-01 -5.13905813E-01  2.33135637E+00 -1.54091959E+00  2.97742145E-01
 -2.97742145E-01  2.97742145E-01 -2.42117625E-02  7.17874962E-02  0.00000000E+00
  0.00000000E+00  0.00000000E+00 -8.92586200E-01  0.00000000E+00  0.00000000E+00
  0.00000000E+00  8.13304033E+00  0.00000000E+00  0.00000000E+00  0.00000000E+00
  3.55571378E+00  0.00000000E+00  0.00000000E+00  0.00000000E+00  7.98021211E-17
  0.00000000E+00  0.00000000E+00 -1.01087860E-15  0.00000000E+00  8.16958417E-02
 -9.55748280E-01 -2.51739099E+00  2.52056175E-01  2.52056175E-01  2.52056175E-01
  8.16958417E-02 -9.55748280E-01 -2.51739099E+00 -2.52056175E-01 -2.52056175E-01
  2.52056175E-01  8.16958417E-02 -9.55748280E-01 -2.51739099E+00  2.52056175E-01
 -2.52056175E-01 -2.52056175E-01  8.16958417E-02 -9.55748280E-01 -2.51739099E+00
 -2.52056175E-01  2.52056175E-01 -2.52056175E-01  0.00000000E+00  0.00000000E+00
  0.00000000E+00  0.00000000E+00  1.21785228E-01  0.00000000E+00  0.00000000E+00
  0.00000000E+00  2.26918184E-01  0.00000000E+00  0.00000000E+00  0.00000000E+00
  2.51308639E-01  0.00000000E+00  0.00000000E+00  0.00000000E+00  1.66255033E-01
  0.00000000E+00  0.00000000E+00  0.00000000E+00  0.00000000E+00  4.75025611E-02
  8.78971691E-02  1.10276553E-01  7.30477959E-02 -3.71351527E-02 -3.71351527E-02
  3.57530384E-02  8.78971691E-02  1.10276553E-01  7.30477959E-02  3.71351527E-02
  3.71351527E-02  3.57530384E-02 -8.78971691E-02 -1.10276553E-01 -7.30477959E-02
  3.71351527E-02 -3.71351527E-02  3.57530384E-02 -8.78971691E-02 -1.10276553E-01
 -7.30477959E-02 -3.71351527E-02  3.71351527E-02  3.57530384E-02  0.00000000E+00
  0.00000000E+00  0.00000000E+00  0.00000000E+00 -1.84903164E-01  0.00000000E+00
  0.00000000E+00  0.00000000E+00 -1.64396754E-01  0.00000000E+00  0.00000000E+00
  0.00000000E+00 -4.77873392E-02  0.00000000E+00  0.00000000E+00  0.00000000E+00
  2.44914361E-03  0.00000000E+00  0.00000000E+00  0.00000000E+00  0.00000000E+00
  4.58714314E-01  1.56588249E-01  9.20622983E-02  2.15100229E-02  1.13665484E-01
  1.13665484E-01 -1.29680545E-01  1.56588249E-01  9.20622983E-02  2.15100229E-02
 -1.13665484E-01 -1.13665484E-01 -1.29680545E-01 -1.56588249E-01 -9.20622983E-02
 -2.15100229E-02 -1.13665484E-01  1.13665484E-01 -1.29680545E-01 -1.56588249E-01
 -9.20622983E-02 -2.15100229E-02  1.13665484E-01 -1.13665484E-01 -1.29680545E-01
  0.00000000E+00  0.00000000E+00  0.00000000E+00  0.00000000E+00  3.44400088E-01
  0.00000000E+00  0.00000000E+00  0.00000000E+00  2.44317202E-01  0.00000000E+00
  0.00000000E+00  0.00000000E+00 -1.64940279E-01  0.00000000E+00  0.00000000E+00
  0.00000000E+00 -2.97732292E-01  0.00000000E+00  0.00000000E+00  0.00000000E+00
  0.00000000E+00  2.32041402E-01  3.59831899E-02 -2.88452655E-02 -9.02544521E-02
 -1.11196784E-01 -1.11196784E-01 -1.68135280E-01  3.59831899E-02 -2.88452655E-02
 -9.02544521E-02  1.11196784E-01  1.11196784E-01 -1.68135280E-01 -3.59831899E-02
  2.88452655E-02  9.02544521E-02  1.11196784E-01 -1.11196784E-01 -1.68135280E-01
 -3.59831899E-02  2.88452655E-02  9.02544521E-02 -1.11196784E-01  1.11196784E-01
 -1.68135280E-01  0.00000000E+00  0.00000000E+00  0.00000000E+00  0.00000000E+00
 -6.22558055E-15  0.00000000E+00  0.00000000E+00  0.00000000E+00 -4.68338042E-16
  0.00000000E+00  0.00000000E+00  0.00000000E+00  6.66829016E-16  0.00000000E+00
  0.00000000E+00  0.00000000E+00  5.87954774E-16  0.00000000E+00  0.00000000E+00
  0.00000000E+00  0.00000000E+00  3.09678324E-15 -5.52781914E-17 -4.64794144E-16
 -2.98042521E-16  3.67585438E-01 -3.67585438E-01  6.27142016E-16 -5.52781914E-17
 -4.64794144E-16 -2.98042521E-16 -3.67585438E-01  3.67585438E-01  6.27142016E-16
  5.52781914E-17  4.64794144E-16  2.98042521E-16 -3.67585438E-01 -3.67585438E-01
  6.27142016E-16  5.52781914E-17  4.64794144E-16  2.98042521E-16  3.67585438E-01
  3.67585438E-01  6.27142016E-16  0.00000000E+00  0.00000000E+00  0.00000000E+00
  0.00000000E+00  1.70345596E-01  0.00000000E+00  0.00000000E+00  0.00000000E+00
 -1.19954599E-01  0.00000000E+00  0.00000000E+00  0.00000000E+00  6.64304173E-02
  0.00000000E+00  0.00000000E+00  0.00000000E+00  7.02576106E-01  0.00000000E+00
  0.00000000E+00  0.00000000E+00  0.00000000E+00  1.74342758E-01 -2.53890650E-01
 -1.03797873E-01  1.09018538E-01 -2.76532500E-02 -2.76532500E-02 -2.81985328E-01
 -2.53890650E-01 -1.03797873E-01  1.09018538E-01  2.76532500E-02  2.76532500E-02
 -2.81985328E-01  2.53890650E-01  1.03797873E-01 -1.09018538E-01  2.76532500E-02
 -2.76532500E-02 -2.81985328E-01  2.53890650E-01  1.03797873E-01 -1.09018538E-01
 -2.76532500E-02  2.76532500E-02 -2.81985328E-01  0.00000000E+00  0.00000000E+00
  0.00000000E+00  0.00000000E+00  7.84270159E-01  0.00000000E+00  0.00000000E+00
  0.00000000E+00  5.51762198E-02  0.00000000E+00  0.00000000E+00  0.00000000E+00
 -9.10223422E-02  0.00000000E+00  0.00000000E+00  0.00000000E+00 -6.70578882E-02
  0.00000000E+00  0.00000000E+00  0.00000000E+00  0.00000000E+00 -3.71866904E-01
 -6.12536116E-03  7.62777508E-02  2.27694935E-02  2.88076756E-01  2.88076756E-01
 -6.22939891E-02 -6.12536116E-03  7.62777508E-02  2.27694935E-02 -2.88076756E-01
 -2.88076756E-01 -6.22939891E-02  6.12536116E-03 -7.62777508E-02 -2.27694935E-02
 -2.88076756E-01  2.88076756E-01 -6.22939891E-02  6.12536116E-03 -7.62777508E-02
 -2.27694935E-02  2.88076756E-01 -2.88076756E-01 -6.22939891E-02  0.00000000E+00
  0.00000000E+00  0.00000000E+00  0.00000000E+00  7.62144569E-01  0.00000000E+00
  0.00000000E+00  0.00000000E+00 -5.82292506E-01  0.00000000E+00  0.00000000E+00
  0.00000000E+00 -3.63553069E-01  0.00000000E+00  0.00000000E+00  0.00000000E+00
  3.14213993E-01  0.00000000E+00  0.00000000E+00  0.00000000E+00  0.00000000E+00
  7.96669850E-01  2.04447837E-02 -1.13796129E-01 -1.29001246E-02 -5.18943538E-02
 -5.18943538E-02  5.03144716E-01  2.04447837E-02 -1.13796129E-01 -1.29001246E-02
  5.18943538E-02  5.18943538E-02  5.03144716E-01 -2.04447837E-02  1.13796129E-01
  1.29001246E-02  5.18943538E-02 -5.18943538E-02  5.03144716E-01 -2.04447837E-02
  1.13796129E-01  1.29001246E-02 -5.18943538E-02  5.18943538E-02  5.03144716E-01
  0.00000000E+00  0.00000000E+00  0.00000000E+00  0.00000000E+00 -8.78706495E-03
  0.00000000E+00  0.00000000E+00  0.00000000E+00  3.38157360E-02  0.00000000E+00
  0.00000000E+00  0.00000000E+00 -6.28432349E-01  0.00000000E+00  0.00000000E+00
  0.00000000E+00  8.66143296E-01  0.00000000E+00  0.00000000E+00  0.00000000E+00
  0.00000000E+00 -6.38990890E-01  6.35195535E-01 -3.28899187E-01 -1.46831485E-01
 -5.50410082E-02 -5.50410082E-02 -9.80101169E-02  6.35195535E-01 -3.28899187E-01
 -1.46831485E-01  5.50410082E-02  5.50410082E-02 -9.80101169E-02 -6.35195535E-01
  3.28899187E-01  1.46831485E-01  5.50410082E-02 -5.50410082E-02 -9.80101169E-02
 -6.35195535E-01  3.28899187E-01  1.46831485E-01 -5.50410082E-02  5.50410082E-02
 -9.80101169E-02  0.00000000E+00  0.00000000E+00  0.00000000E+00  0.00000000E+00
  6.72200511E-01  0.00000000E+00  0.00000000E+00  0.00000000E+00 -1.77201446E+00
  0.00000000E+00  0.00000000E+00  0.00000000E+00  2.27623879E+00  0.00000000E+00
  0.00000000E+00  0.00000000E+00 -8.53045818E-01  0.00000000E+00  0.00000000E+00
  0.00000000E+00  0.00000000E+00 -3.19863107E-01  4.39013571E-01 -6.08267139E-01
  7.75674568E-02 -1.20410672E-01 -1.20410672E-01 -2.74528060E-01  4.39013571E-01
 -6.08267139E-01  7.75674568E-02  1.20410672E-01  1.20410672E-01 -2.74528060E-01
 -4.39013571E-01  6.08267139E-01 -7.75674568E-02  1.20410672E-01 -1.20410672E-01
 -2.74528060E-01 -4.39013571E-01  6.08267139E-01 -7.75674568E-02 -1.20410672E-01
  1.20410672E-01 -2.74528060E-01  0.00000000E+00  0.00000000E+00  0.00000000E+00
  0.00000000E+00  2.68327696E-01  0.00000000E+00  0.00000000E+00  0.00000000E+00
 -1.45122564E+00  0.00000000E+00  0.00000000E+00  0.00000000E+00 -1.77584289E+00
  0.00000000E+00  0.00000000E+00  0.00000000E+00 -8.77008690E-01  0.00000000E+00
  0.00000000E+00  0.00000000E+00  0.00000000E+00 -9.86513111E-01  2.05818144E-01
  5.76390382E-01  1.71724947E+00 -4.80193420E-01 -4.80193420E-01 -2.47877557E-01
  2.05818144E-01  5.76390382E-01  1.71724947E+00  4.80193420E-01  4.80193420E-01
 -2.47877557E-01 -2.05818144E-01 -5.76390382E-01 -1.71724947E+00  4.80193420E-01
 -4.80193420E-01 -2.47877557E-01 -2.05818144E-01 -5.76390382E-01 -1.71724947E+00
 -4.80193420E-01  4.80193420E-01 -2.47877557E-01  0.00000000E+00  0.00000000E+00
  0.00000000E+00  0.00000000E+00  6.40866329E-01  0.00000000E+00  0.00000000E+00
  0.00000000E+00 -3.25549812E+00  0.00000000E+00  0.00000000E+00  0.00000000E+00
 -3.94356507E-02  0.00000000E+00  0.00000000E+00  0.00000000E+00  1.19144556E+00
  0.00000000E+00  0.00000000E+00  0.00000000E+00  0.00000000E+00 -1.48517941E+00
 -1.47680192E-01  2.37271497E+00 -1.97728914E+00 -6.30507236E-01 -6.30507236E-01
 -4.27948483E-01 -1.47680192E-01  2.37271497E+00 -1.97728914E+00  6.30507236E-01
  6.30507236E-01 -4.27948483E-01  1.47680192E-01 -2.37271497E+00  1.97728914E+00
  6.30507236E-01 -6.30507236E-01 -4.27948483E-01  1.47680192E-01 -2.37271497E+00
  1.97728914E+00 -6.30507236E-01  6.30507236E-01 -4.27948483E-01  0.00000000E+00
  0.00000000E+00  0.00000000E+00  1.21785228E-01  0.00000000E+00  0.00000000E+00
  0.00000000E+00  2.26918184E-01  0.00000000E+00  0.00000000E+00  0.00000000E+00
  2.51308639E-01  0.00000000E+00  0.00000000E+00  0.00000000E+00  1.66255033E-01
  0.00000000E+00  0.00000000E+00  4.75025611E-02  0.00000000E+00  0.00000000E+00
  0.00000000E+00  8.78971691E-02  1.10276553E-01  7.30477959E-02 -3.71351527E-02
  3.57530384E-02 -3.71351527E-02 -8.78971691E-02 -1.10276553E-01 -7.30477959E-02
 -3.71351527E-02  3.57530384E-02  3.71351527E-02 -8.78971691E-02 -1.10276553E-01
 -7.30477959E-02  3.71351527E-02  3.57530384E-02 -3.71351527E-02  8.78971691E-02
  1.10276553E-01  7.30477959E-02  3.71351527E-02  3.57530384E-02  3.71351527E-02
  0.00000000E+00  0.00000000E+00  0.00000000E+00 -1.84903164E-01  0.00000000E+00
  0.00000000E+00  0.00000000E+00 -1.64396754E-01  0.00000000E+00  0.00000000E+00
  0.00000000E+00 -4.77873392E-02  0.00000000E+00  0.00000000E+00  0.00000000E+00
  2.44914361E-03  0.00000000E+00  0.00000000E+00  4.58714314E-01  0.00000000E+00
  0.00000000E+00  0.00000000E+00  1.56588249E-01  9.20622983E-02  2.15100229E-02
  1.13665484E-01 -1.29680545E-01  1.13665484E-01 -1.56588249E-01 -9.20622983E-02
 -2.15100229E-02  1.13665484E-01 -1.29680545E-01 -1.13665484E-01 -1.56588249E-01
 -9.20622983E-02 -2.15100229E-02 -1.13665484E-01 -1.29680545E-01  1.13665484E-01
  1.56588249E-01  9.20622983E-02  2.15100229E-02 -1.13665484E-01 -1.29680545E-01
 -1.13665484E-01  0.00000000E+00  0.00000000E+00  0.00000000E+00  3.44400088E-01
  0.00000000E+00  0.00000000E+00  0.00000000E+00  2.44317202E-01  0.00000000E+00
  0.00000000E+00  0.00000000E+00 -1.64940279E-01  0.00000000E+00  0.00000000E+00
  0.00000000E+00 -2.97732292E-01  0.00000000E+00  0.00000000E+00  2.32041402E-01
  0.00000000E+00  0.00000000E+00  0.00000000E+00  3.59831899E-02 -2.88452655E-02
 -9.02544521E-02 -1.11196784E-01 -1.68135280E-01 -1.11196784E-01 -3.59831899E-02
  2.88452655E-02  9.02544521E-02 -1.11196784E-01 -1.68135280E-01  1.11196784E-01
 -3.59831899E-02  2.88452655E-02  9.02544521E-02  1.11196784E-01 -1.68135280E-01
 -1.11196784E-01  3.59831899E-02 -2.88452655E-02 -9.02544521E-02  1.11196784E-01
 -1.68135280E-01  1.11196784E-01  0.00000000E+00  0.00000000E+00  0.00000000E+00
  6.47029614E-16  0.00000000E+00  0.00000000E+00  0.00000000E+00  9.76748457E-17
  0.00000000E+00  0.00000000E+00  0.00000000E+00 -2.21351900E-17  0.00000000E+00
  0.00000000E+00  0.00000000E+00  7.60533032E-17  0.00000000E+00  0.00000000E+00
 -2.33660104E-16  0.00000000E+00  0.00000000E+00  0.00000000E+00 -5.30625163E-17
 -4.09984971E-17  6.70100017E-17  3.67585438E-01  2.18882649E-17 -3.67585438E-01
  5.30625163E-17  4.09984971E-17 -6.70100017E-17  3.67585438E-01  2.18882649E-17
  3.67585438E-01  5.30625163E-17  4.09984971E-17 -6.70100017E-17 -3.67585438E-01
  2.18882649E-17 -3.67585438E-01 -5.30625163E-17 -4.09984971E-17  6.70100017E-17
 -3.67585438E-01  2.18882649E-17  3.67585438E-01  0.00000000E+00  0.00000000E+00
  0.00000000E+00  1.70345596E-01  0.00000000E+00  0.00000000E+00  0.00000000E+00
 -1.19954599E-01  0.00000000E+00  0.00000000E+00  0.00000000E+00  6.64304173E-02
  0.00000000E+00  0.00000000E+00  0.00000000E+00  7.02576106E-01  0.00000000E+00
  0.00000000E+00  1.74342758E-01  0.00000000E+00  0.00000000E+00  0.00000000E+00
 -2.53890650E-01 -1.03797873E-01  1.09018538E-01 -2.76532500E-02 -2.81985328E-01
 -2.76532500E-02  2.53890650E-01  1.03797873E-01 -1.09018538E-01 -2.76532500E-02
 -2.81985328E-01  2.76532500E-02  2.53890650E-01  1.03797873E-01 -1.09018538E-01
  2.76532500E-02 -2.81985328E-01 -2.76532500E-02 -2.53890650E-01 -1.03797873E-01
  1.09018538E-01  2.76532500E-02 -2.81985328E-01  2.76532500E-02  0.00000000E+00
  0.00000000E+00  0.00000000E+00  7.84270159E-01  0.00000000E+00  0.00000000E+00
  0.00000000E+00  5.51762198E-02  0.00000000E+00  0.00000000E+00  0.00000000E+00
 -9.10223422E-02  0.00000000E+00  0.00000000E+00  0.00000000E+00 -6.70578882E-02
  0.00000000E+00  0.00000000E+00 -3.71866904E-01  0.00000000E+00  0.00000000E+00
  0.00000000E+00 -6.12536116E-03  7.62777508E-02  2.27694935E-02  2.88076756E-01
 -6.22939891E-02  2.88076756E-01  6.12536116E-03 -7.62777508E-02 -2.27694935E-02
  2.88076756E-01 -6.22939891E-02 -2.88076756E-01  6.12536116E-03 -7.62777508E-02
 -2.27694935E-02 -2.88076756E-01 -6.22939891E-02  2.88076756E-01 -6.12536116E-03
  7.62777508E-02  2.27694935E-02 -2.88076756E-01 -6.22939891E-02 -2.88076756E-01
  0.00000000E+00  0.00000000E+00  0.00000000E+00  7.62144569E-01  0.00000000E+00
  0.00000000E+00  0.00000000E+00 -5.82292506E-01  0.00000000E+00  0.00000000E+00
  0.00000000E+00 -3.63553069E-01  0.00000000E+00  0.00000000E+00  0.00000000E+00
  3.14213993E-01  0.00000000E+00  0.00000000E+00  7.96669850E-01  0.00000000E+00
  0.00000000E+00  0.00000000E+00  2.04447837E-02 -1.13796129E-01 -1.29001246E-02
 -5.18943538E-02  5.03144716E-01 -5.18943538E-02 -2.04447837E-02  1.13796129E-01
  1.29001246E-02 -5.18943538E-02  5.03144716E-01  5.18943538E-02 -2.04447837E-02
  1.13796129E-01  1.29001246E-02  5.18943538E-02  5.03144716E-01 -5.18943538E-02
  2.04447837E-02 -1.13796129E-01 -1.29001246E-02  5.18943538E-02  5.03144716E-01
  5.18943538E-02  0.00000000E+00  0.00000000E+00  0.00000000E+00 -8.78706495E-03
  0.00000000E+00  0.00000000E+00  0.00000000E+00  3.38157360E-02  0.00000000E+00
  0.00000000E+00  0.00000000E+00 -6.28432349E-01  0.00000000E+00  0.00000000E+00
  0.00000000E+00  8.66143296E-01  0.00000000E+00  0.00000000E+00 -6.38990890E-01
  0.00000000E+00  0.00000000E+00  0.00000000E+00  6.35195535E-01 -3.28899187E-01
 -1.46831485E-01 -5.50410082E-02 -9.80101169E-02 -5.50410082E-02 -6.35195535E-01
  3.28899187E-01  1.46831485E-01 -5.50410082E-02 -9.80101169E-02  5.50410082E-02
 -6.35195535E-01  3.28899187E-01  1.46831485E-01  5.50410082E-02 -9.80101169E-02
 -5.50410082E-02  6.35195535E-01 -3.28899187E-01 -1.46831485E-01  5.50410082E-02
 -9.80101169E-02  5.50410082E-02  0.00000000E+00  0.00000000E+00  0.00000000E+00
  6.72200511E-01  0.00000000E+00  0.00000000E+00  0.00000000E+00 -1.77201446E+00
  0.00000000E+00  0.00000000E+00  0.00000000E+00  2.27623879E+00  0.00000000E+00
  0.00000000E+00  0.00000000E+00 -8.53045818E-01  0.00000000E+00  0.00000000E+00
 -3.19863107E-01  0.00000000E+00  0.00000000E+00  0.00000000E+00  4.39013571E-01
 -6.08267139E-01  7.75674568E-02 -1.20410672E-01 -2.74528060E-01 -1.20410672E-01
 -4.39013571E-01  6.08267139E-01 -7.75674568E-02 -1.20410672E-01 -2.74528060E-01
  1.20410672E-01 -4.39013571E-01  6.08267139E-01 -7.75674568E-02  1.20410672E-01
 -2.74528060E-01 -1.20410672E-01  4.39013571E-01 -6.08267139E-01  7.75674568E-02
  1.20410672E-01 -2.74528060E-01  1.20410672E-01  0.00000000E+00  0.00000000E+00
  0.00000000E+00  2.68327696E-01  0.00000000E+00  0.00000000E+00  0.00000000E+00
 -1.45122564E+00  0.00000000E+00  0.00000000E+00  0.00000000E+00 -1.77584289E+00
  0.00000000E+00  0.00000000E+00  0.00000000E+00 -8.77008690E-01  0.00000000E+00
  0.00000000E+00 -9.86513111E-01  0.00000000E+00  0.00000000E+00  0.00000000E+00
  2.05818144E-01  5.76390382E-01  1.71724947E+00 -4.80193420E-01 -2.47877557E-01
 -4.80193420E-01 -2.05818144E-01 -5.76390382E-01 -1.71724947E+00 -4.80193420E-01
 -2.47877557E-01  4.80193420E-01 -2.05818144E-01 -5.76390382E-01 -1.71724947E+00
  4.80193420E-01 -2.47877557E-01 -4.80193420E-01  2.05818144E-01  5.76390382E-01
  1.71724947E+00  4.80193420E-01 -2.47877557E-01  4.80193420E-01  0.00000000E+00
  0.00000000E+00  0.00000000E+00  6.40866329E-01  0.00000000E+00  0.00000000E+00
  0.00000000E+00 -3.25549812E+00  0.00000000E+00  0.00000000E+00  0.00000000E+00
 -3.94356507E-02  0.00000000E+00  0.00000000E+00  0.00000000E+00  1.19144556E+00
  0.00000000E+00  0.00000000E+00 -1.48517941E+00  0.00000000E+00  0.00000000E+00
  0.00000000E+00 -1.47680192E-01  2.37271497E+00 -1.97728914E+00 -6.30507236E-01
 -4.27948483E-01 -6.30507236E-01  1.47680192E-01 -2.37271497E+00  1.97728914E+00
 -6.30507236E-01 -4.27948483E-01  6.30507236E-01  1.47680192E-01 -2.37271497E+00
  1.97728914E+00  6.30507236E-01 -4.27948483E-01 -6.30507236E-01 -1.47680192E-01
  2.37271497E+00 -1.97728914E+00  6.30507236E-01 -4.27948483E-01  6.30507236E-01
  0.00000000E+00  0.00000000E+00  1.21785228E-01  0.00000000E+00  0.00000000E+00
  0.00000000E+00  2.26918184E-01  0.00000000E+00  0.00000000E+00  0.00000000E+00
  2.51308639E-01  0.00000000E+00  0.00000000E+00  0.00000000E+00  1.66255033E-01
  0.00000000E+00  0.00000000E+00  0.00000000E+00  0.00000000E+00  4.75025611E-02
  0.00000000E+00  0.00000000E+00  8.78971691E-02  1.10276553E-01  7.30477959E-02
  3.57530384E-02 -3.71351527E-02 -3.71351527E-02 -8.78971691E-02 -1.10276553E-01
 -7.30477959E-02  3.57530384E-02 -3.71351527E-02  3.71351527E-02  8.78971691E-02
  1.10276553E-01  7.30477959E-02  3.57530384E-02  3.71351527E-02  3.71351527E-02
 -8.78971691E-02 -1.10276553E-01 -7.30477959E-02  3.57530384E-02  3.71351527E-02
 -3.71351527E-02  0.00000000E+00  0.00000000E+00 -1.84903164E-01  0.00000000E+00
  0.00000000E+00  0.00000000E+00 -1.64396754E-01  0.00000000E+00  0.00000000E+00
  0.00000000E+00 -4.77873392E-02  0.00000000E+00  0.00000000E+00  0.00000000E+00
  2.44914361E-03  0.00000000E+00  0.00000000E+00  0.00000000E+00  0.00000000E+00
  4.58714314E-01  0.00000000E+00  0.00000000E+00  1.56588249E-01  9.20622983E-02
  2.15100229E-02 -1.29680545E-01  1.13665484E-01  1.13665484E-01 -1.56588249E-01
 -9.20622983E-02 -2.15100229E-02 -1.29680545E-01  1.13665484E-01 -1.13665484E-01
  1.56588249E-01  9.20622983E-02  2.15100229E-02 -1.29680545E-01 -1.13665484E-01
 -1.13665484E-01 -1.56588249E-01 -9.20622983E-02 -2.15100229E-02 -1.29680545E-01
 -1.13665484E-01  1.13665484E-01  0.00000000E+00  0.00000000E+00  3.44400088E-01
  0.00000000E+00  0.00000000E+00  0.00000000E+00  2.44317202E-01  0.00000000E+00
  0.00000000E+00  0.00000000E+00 -1.64940279E-01  0.00000000E+00  0.00000000E+00
  0.00000000E+00 -2.97732292E-01  0.00000000E+00  0.00000000E+00  0.00000000E+00
  0.00000000E+00  2.32041402E-01  0.00000000E+00  0.00000000E+00  3.59831899E-02
 -2.88452655E-02 -9.02544521E-02 -1.68135280E-01 -1.11196784E-01 -1.11196784E-01
 -3.59831899E-02  2.88452655E-02  9.02544521E-02 -1.68135280E-01 -1.11196784E-01
  1.11196784E-01  3.59831899E-02 -2.88452655E-02 -9.02544521E-02 -1.68135280E-01
  1.11196784E-01  1.11196784E-01 -3.59831899E-02  2.88452655E-02  9.02544521E-02
 -1.68135280E-01  1.11196784E-01 -1.11196784E-01  0.00000000E+00  0.00000000E+00
  8.58222953E-15  0.00000000E+00  0.00000000E+00  0.00000000E+00  5.85589214E-16
  0.00000000E+00  0.00000000E+00  0.00000000E+00 -9.87066967E-16  0.00000000E+00
  0.00000000E+00  0.00000000E+00 -7.33249794E-16  0.00000000E+00  0.00000000E+00
  0.00000000E+00  0.00000000E+00 -4.27173115E-15  0.00000000E+00  0.00000000E+00
  7.03847284E-17  8.29777547E-16  3.09092147E-16 -5.82518556E-16  3.67585438E-01
 -3.67585438E-01 -7.03847284E-17 -8.29777547E-16 -3.09092147E-16 -5.82518556E-16
  3.67585438E-01  3.67585438E-01  7.03847284E-17  8.29777547E-16  3.09092147E-16
 -5.82518556E-16 -3.67585438E-01  3.67585438E-01 -7.03847284E-17 -8.29777547E-16
 -3.09092147E-16 -5.82518556E-16 -3.67585438E-01 -3.67585438E-01  0.00000000E+00
  0.00000000E+00  1.70345596E-01  0.00000000E+00  0.00000000E+00  0.00000000E+00
 -1.19954599E-01  0.00000000E+00  0.00000000E+00  0.00000000E+00  6.64304173E-02
  0.00000000E+00  0.00000000E+00  0.00000000E+00  7.02576106E-01  0.00000000E+00
  0.00000000E+00  0.00000000E+00  0.00000000E+00  1.74342758E-01  0.00000000E+00
  0.00000000E+00 -2.53890650E-01 -1.03797873E-01  1.09018538E-01 -2.81985328E-01
 -2.76532500E-02 -2.76532500E-02  2.53890650E-01  1.03797873E-01 -1.09018538E-01
 -2.81985328E-01 -2.76532500E-02  2.76532500E-02 -2.53890650E-01 -1.03797873E-01
  1.09018538E-01 -2.81985328E-01  2.76532500E-02  2.76532500E-02  2.53890650E-01
  1.03797873E-01 -1.09018538E-01 -2.81985328E-01  2.76532500E-02 -2.76532500E-02
  0.00000000E+00  0.00000000E+00  7.84270159E-01  0.00000000E+00  0.00000000E+00
  0.00000000E+00  5.51762198E-02  0.00000000E+00  0.00000000E+00  0.00000000E+00
 -9.10223422E-02  0.00000000E+00  0.00000000E+00  0.00000000E+00 -6.70578882E-02
  0.00000000E+00  0.00000000E+00  0.00000000E+00  0.00000000E+00 -3.71866904E-01
  0.00000000E+00  0.00000000E+00 -6.12536116E-03  7.62777508E-02  2.27694935E-02
 -6.22939891E-02  2.88076756E-01  2.88076756E-01  6.12536116E-03 -7.62777508E-02
 -2.27694935E-02 -6.22939891E-02  2.88076756E-01 -2.88076756E-01 -6.12536116E-03
  7.62777508E-02  2.27694935E-02 -6.22939891E-02 -2.88076756E-01 -2.88076756E-01
  6.12536116E-03 -7.62777508E-02 -2.27694935E-02 -6.22939891E-02 -2.88076756E-01
  2.88076756E-01  0.00000000E+00  0.00000000E+00  7.62144569E-01  0.00000000E+00
  0.00000000E+00  0.00000000E+00 -5.82292506E-01  0.00000000E+00  0.00000000E+00
  0.00000000E+00 -3.63553069E-01  0.00000000E+00  0.00000000E+00  0.00000000E+00
  3.14213993E-01  0.00000000E+00  0.00000000E+00  0.00000000E+00  0.00000000E+00
  7.96669850E-01  0.00000000E+00  0.00000000E+00  2.04447837E-02 -1.13796129E-01
 -1.29001246E-02  5.03144716E-01 -5.18943538E-02 -5.18943538E-02 -2.04447837E-02
  1.13796129E-01  1.29001246E-02  5.03144716E-01 -5.18943538E-02  5.18943538E-02
  2.04447837E-02 -1.13796129E-01 -1.29001246E-02  5.03144716E-01  5.18943538E-02
  5.18943538E-02 -2.04447837E-02  1.13796129E-01  1.29001246E-02  5.03144716E-01
  5.18943538E-02 -5.18943538E-02  0.00000000E+00  0.00000000E+00 -8.78706495E-03
  0.00000000E+00  0.00000000E+00  0.00000000E+00  3.38157360E-02  0.00000000E+00
  0.00000000E+00  0.00000000E+00 -6.28432349E-01  0.00000000E+00  0.00000000E+00
  0.00000000E+00  8.66143296E-01  0.00000000E+00  0.00000000E+00  0.00000000E+00
  0.00000000E+00 -6.38990890E-01  0.00000000E+00  0.00000000E+00  6.35195535E-01
 -3.28899187E-01 -1.46831485E-01 -9.80101169E-02 -5.50410082E-02 -5.50410082E-02
 -6.35195535E-01  3.28899187E-01  1.46831485E-01 -9.80101169E-02 -5.50410082E-02
  5.50410082E-02  6.35195535E-01 -3.28899187E-01 -1.46831485E-01 -9.80101169E-02
  5.50410082E-02  5.50410082E-02 -6.35195535E-01  3.28899187E-01  1.46831485E-01
 -9.80101169E-02  5.50410082E-02 -5.50410082E-02  0.00000000E+00  0.00000000E+00
  6.72200511E-01  0.00000000E+00  0.00000000E+00  0.00000000E+00 -1.77201446E+00
  0.00000000E+00  0.00000000E+00  0.00000000E+00  2.27623879E+00  0.00000000E+00
  0.00000000E+00  0.00000000E+00 -8.53045818E-01  0.00000000E+00  0.00000000E+00
  0.00000000E+00  0.00000000E+00 -3.19863107E-01  0.00000000E+00  0.00000000E+00
  4.39013571E-01 -6.08267139E-01  7.75674568E-02 -2.74528060E-01 -1.20410672E-01
 -1.20410672E-01 -4.39013571E-01  6.08267139E-01 -7.75674568E-02 -2.74528060E-01
 -1.20410672E-01  1.20410672E-01  4.39013571E-01 -6.08267139E-01  7.75674568E-02
 -2.74528060E-01  1.20410672E-01  1.20410672E-01 -4.39013571E-01  6.08267139E-01
 -7.75674568E-02 -2.74528060E-01  1.20410672E-01 -1.20410672E-01  0.00000000E+00
  0.00000000E+00  2.68327696E-01  0.00000000E+00  0.00000000E+00  0.00000000E+00
 -1.45122564E+00  0.00000000E+00  0.00000000E+00  0.00000000E+00 -1.77584289E+00
  0.00000000E+00  0.00000000E+00  0.00000000E+00 -8.77008690E-01  0.00000000E+00
  0.00000000E+00  0.00000000E+00  0.00000000E+00 -9.86513111E-01  0.00000000E+00
  0.00000000E+00  2.05818144E-01  5.76390382E-01  1.71724947E+00 -2.47877557E-01
 -4.80193420E-01 -4.80193420E-01 -2.05818144E-01 -5.76390382E-01 -1.71724947E+00
 -2.47877557E-01 -4.80193420E-01  4.80193420E-01  2.05818144E-01  5.76390382E-01
  1.71724947E+00 -2.47877557E-01  4.80193420E-01  4.80193420E-01 -2.05818144E-01
 -5.76390382E-01 -1.71724947E+00 -2.47877557E-01  4.80193420E-01 -4.80193420E-01
  0.00000000E+00  0.00000000E+00  6.40866329E-01  0.00000000E+00  0.00000000E+00
  0.00000000E+00 -3.25549812E+00  0.00000000E+00  0.00000000E+00  0.00000000E+00
 -3.94356507E-02  0.00000000E+00  0.00000000E+00  0.00000000E+00  1.19144556E+00
  0.00000000E+00  0.00000000E+00  0.00000000E+00  0.00000000E+00 -1.48517941E+00
  0.00000000E+00  0.00000000E+00 -1.47680192E-01  2.37271497E+00 -1.97728914E+00
 -4.27948483E-01 -6.30507236E-01 -6.30507236E-01  1.47680192E-01 -2.37271497E+00
  1.97728914E+00 -4.27948483E-01 -6.30507236E-01  6.30507236E-01 -1.47680192E-01
  2.37271497E+00 -1.97728914E+00 -4.27948483E-01  6.30507236E-01  6.30507236E-01
  1.47680192E-01 -2.37271497E+00  1.97728914E+00 -4.27948483E-01  6.30507236E-01
 -6.30507236E-01
Total SCF Density                          R   N=        1081
  6.57680353E-01  5.58301616E-01  4.86000024E-01 -8.21730110E-33 -5.13581319E-33
  8.43498189E-02 -3.69778549E-32 -3.69778549E-32 -2.06804037E-17  8.43498189E-02
  3.28692044E-32  3.69778549E-32  2.22411889E-17  1.01451037E-17  8.43498189E-02
 -7.38865439E-02 -1.30322149E-01 -1.23259516E-32  8.21730110E-32 -2.46519033E-32
  3.87205380E-01 -2.87605538E-32  4.72494813E-32  1.19446345E-01 -2.92851681E-17
  3.14953695E-17 -1.02716264E-33  1.69145938E-01  1.72563323E-31  1.35585468E-31
 -2.92851681E-17  1.19446345E-01  1.43663089E-17 -1.23259516E-32 -4.14702288E-17
  1.69145938E-01 -1.47911420E-31 -1.31476818E-31  3.14953695E-17  1.43663089E-17
  1.19446345E-01  8.21730110E-33  4.46000574E-17  2.03438858E-17  1.69145938E-01
 -6.77101893E-02 -9.93128850E-02  5.75211077E-32 -1.79753461E-33 -2.46519033E-32
  2.42089970E-01  8.21730110E-32 -1.23259516E-31  1.64346022E-32  1.52079600E-01
 -1.23259516E-32  5.13581319E-33  8.18916000E-02 -2.00777117E-17  2.15930107E-17
 -8.21730110E-32  1.15965303E-01 -2.84317063E-17  3.05774954E-17  2.05432527E-32
  7.95050213E-02  8.73088241E-33 -1.54074396E-32 -2.00777117E-17  8.18916000E-02
  9.84944348E-18  9.86076132E-32 -2.84317063E-17  1.15965303E-01  1.39476295E-17
  1.54074396E-32 -1.94925841E-17  7.95050213E-02  5.13581319E-33  7.19013846E-33
  2.15930107E-17  9.84944348E-18  8.18916000E-02 -1.33531143E-32  3.05774954E-17
  1.39476295E-17  1.15965303E-01 -1.23259516E-32  2.09637225E-17  9.56239973E-18
  7.95050213E-02 -8.61057422E-03 -1.01223130E-02 -6.61235948E-33  2.05432527E-32
 -1.02716264E-32  1.67335341E-02 -2.31111593E-32  4.93038066E-32 -8.21730110E-33
  1.06433051E-02  2.56790659E-33  2.87605538E-32 -1.02716264E-32  7.68762060E-04
  1.43802769E-32  1.64346022E-32  5.62344877E-03 -1.37872484E-18  1.48277955E-18
 -4.93038066E-32  7.96327022E-03 -1.95238881E-18  2.09973891E-18 -1.64346022E-32
  5.45956380E-03 -1.33854447E-18  1.43956669E-18 -2.56790659E-33  3.74905086E-04
 -1.64346022E-32 -2.36247407E-32 -1.37872484E-18  5.62344877E-03  6.76355583E-19
  8.21730110E-32 -1.95238881E-18  7.96327022E-03  9.57775645E-19  4.51951560E-32
 -1.33854447E-18  5.45956380E-03  6.56644455E-19  5.13581319E-33 -9.19170738E-20
  3.74905086E-04  1.02716264E-32  1.23259516E-32  1.48277955E-18  6.76355583E-19
  5.62344877E-03 -6.57384088E-32  2.09973891E-18  9.57775645E-19  7.96327022E-03
 -4.51951560E-32  1.43956669E-18  6.56644455E-19  5.45956380E-03 -2.56790659E-33
  9.88542115E-20  4.50913947E-20  3.74905086E-04  1.18551688E-32 -2.24477835E-32
  1.43393241E-19  6.25715961E-19  1.38178941E-18  1.71878548E-31  2.03056731E-19
  8.86065737E-19  1.95672850E-18  1.07937674E-31  1.39214311E-19  6.07480631E-19
  1.34151973E-18  8.66668475E-33  9.55976618E-21  4.17153434E-20  9.21213832E-20
  1.60827159E-30 -1.89770440E-32 -1.42327830E-32 -3.79320143E-18  9.76174887E-03
  9.48300357E-19  4.26983490E-32 -5.37148806E-18  1.38234467E-02  1.34287202E-18
  6.16753930E-32 -3.68265561E-18  9.47726082E-03  9.20663903E-19  4.29948653E-33
 -2.52885829E-19  6.50798016E-04  6.32214574E-20  7.24136953E-20  1.12972076E-03
 -2.19422071E-32 -5.93032625E-33  9.76174887E-03 -9.93457516E-19  2.43848663E-18
  3.79540880E-32  1.38234467E-02 -1.40681830E-18  3.45309947E-18  9.48852200E-33
  9.47726082E-03 -9.64505041E-19  2.36742146E-18 -4.74426100E-33  6.50798016E-04
 -6.62320030E-20  1.62569462E-19  1.65948052E-20 -2.76978440E-19  1.12972076E-03
  1.98888317E-31  1.88324923E-31 -6.99935977E-19  1.35471480E-18 -1.39987195E-18
 -1.93328636E-31 -9.91167440E-19  1.91838859E-18 -1.98233488E-18 -1.20533881E-31
 -6.79537643E-19  1.31523415E-18 -1.35907529E-18 -4.04003476E-33 -4.66634566E-20
  9.03163677E-20 -9.33269133E-20  2.13320178E-34  1.56780249E-19 -8.10031288E-20
  1.60582526E-30  1.51816352E-31  8.53966980E-32  2.70942959E-18  1.39987195E-18
  9.76174887E-03 -1.61304874E-31  3.83677719E-18  1.98233488E-18  1.38234467E-02
 -5.69311320E-32  2.63046829E-18  1.35907529E-18  9.47726082E-03 -4.15122837E-33
  1.80632735E-19  9.33269133E-20  6.50798016E-04  1.59913577E-19  1.35876216E-19
  2.97882474E-19 -1.62006258E-19  1.12972076E-03 -1.84426087E-02 -2.87935414E-02
  4.31350010E-02  4.31350010E-02  4.31350010E-02  7.57097858E-02  6.10827417E-02
  6.10827417E-02  6.10827417E-02  4.74691232E-02  4.18779115E-02  4.18779115E-02
  4.18779115E-02  3.30552143E-03  2.87573194E-03  2.87573194E-03  2.87573194E-03
  1.09993140E-18  4.99198520E-03  4.99198520E-03 -3.81027413E-19  4.99198520E-03
  8.10036701E-02 -2.62803851E-02 -3.77826676E-02  6.02410480E-02  6.02410480E-02
  6.02410480E-02  8.96819668E-02  8.53063241E-02  8.53063241E-02  8.53063241E-02
  5.63777454E-02  5.84854345E-02  5.84854345E-02  5.84854345E-02  3.95287867E-03
  4.01616094E-03  4.01616094E-03  4.01616094E-03  1.53613118E-18  6.97165673E-03
  6.97165673E-03 -5.32131450E-19  6.97165673E-03  1.10010928E-01  1.49971185E-01
  3.08985520E-03  2.04654613E-03  2.81823034E-02  2.81823034E-02  2.81823034E-02
  2.88373472E-03  3.99084808E-02  3.99084808E-02  3.99084808E-02  1.68129166E-03
  2.73609825E-02  2.73609825E-02  2.73609825E-02  9.39824207E-05  1.87886283E-03
  1.87886283E-03  1.87886283E-03  7.18641466E-19  3.26151938E-03  3.26151938E-03
 -2.48944706E-19  3.26151938E-03  4.37770435E-02  6.09978681E-02  2.82902196E-02
  3.37946419E-03  4.25760832E-03  1.57618611E-03 -3.81183332E-03 -3.81183332E-03
 -8.16398558E-03  2.23201036E-03 -5.39787237E-03 -5.39787237E-03 -5.16521255E-03
  1.53025110E-03 -3.70074451E-03 -3.70074451E-03 -3.68150003E-04  1.05081457E-04
 -2.54127984E-04 -2.54127984E-04 -8.80412257E-20 -4.41140954E-04  1.82410979E-04
 -1.10385276E-20 -4.41140954E-04 -4.70017764E-03 -6.23583244E-03 -2.07103564E-03
  5.51260984E-04  3.37946419E-03  4.25760832E-03 -3.81183332E-03  1.57618611E-03
 -3.81183332E-03 -8.16398558E-03 -5.39787237E-03  2.23201036E-03 -5.39787237E-03
 -5.16521255E-03 -3.70074451E-03  1.53025110E-03 -3.70074451E-03 -3.68150003E-04
 -2.54127984E-04  1.05081457E-04 -2.54127984E-04 -5.72318627E-20  1.82410979E-04
 -4.41140954E-04  1.20206547E-19 -4.41140954E-04 -4.70017764E-03 -6.23583244E-03
 -2.07103564E-03  2.07090080E-04  5.51260984E-04  3.37946419E-03  4.25760832E-03
 -3.81183332E-03 -3.81183332E-03  1.57618611E-03 -8.16398558E-03 -5.39787237E-03
 -5.39787237E-03  2.23201036E-03 -5.16521255E-03 -3.70074451E-03 -3.70074451E-03
  1.53025110E-03 -3.68150003E-04 -2.54127984E-04 -2.54127984E-04  1.05081457E-04
 -8.93610449E-21 -4.41140954E-04 -4.41140954E-04 -5.57483882E-20  1.82410979E-04
 -4.70017764E-03 -6.23583244E-03 -2.07103564E-03  2.07090080E-04  2.07090080E-04
  5.51260984E-04 -1.84426087E-02 -2.87935414E-02 -4.31350010E-02 -4.31350010E-02
  4.31350010E-02  7.57097858E-02 -6.10827417E-02 -6.10827417E-02  6.10827417E-02
  4.74691232E-02 -4.18779115E-02 -4.18779115E-02  4.18779115E-02  3.30552143E-03
 -2.87573194E-03 -2.87573194E-03  2.87573194E-03  3.13313792E-19 -4.99198520E-03
 -4.99198520E-03 -1.05071196E-18  4.99198520E-03 -7.23022716E-03 -1.32138851E-02
 -1.38706767E-02 -2.41363700E-03 -2.41363700E-03  3.09703811E-03  8.10036701E-02
 -2.62803851E-02 -3.77826676E-02 -6.02410480E-02 -6.02410480E-02  6.02410480E-02
  8.96819668E-02 -8.53063241E-02 -8.53063241E-02  8.53063241E-02  5.63777454E-02
 -5.84854345E-02 -5.84854345E-02  5.84854345E-02  3.95287867E-03 -4.01616094E-03
 -4.01616094E-03  4.01616094E-03  4.37564639E-19 -6.97165673E-03 -6.97165673E-03
 -1.46739279E-18  6.97165673E-03 -1.32138851E-02 -2.21208910E-02 -1.95112078E-02
 -3.04251840E-03 -3.04251840E-03  4.65352509E-03  1.10010928E-01  1.49971185E-01
  3.08985520E-03  2.04654613E-03 -2.81823034E-02 -2.81823034E-02  2.81823034E-02
  2.88373472E-03 -3.99084808E-02 -3.99084808E-02  3.99084808E-02  1.68129166E-03
 -2.73609825E-02 -2.73609825E-02  2.73609825E-02  9.39824207E-05 -1.87886283E-03
 -1.87886283E-03  1.87886283E-03  2.04703933E-19 -3.26151938E-03 -3.26151938E-03
 -6.86483887E-19  3.26151938E-03 -1.38706767E-02 -1.95112078E-02 -9.37398581E-03
 -5.77121635E-04 -5.77121635E-04  3.02328440E-03  4.37770435E-02  6.09978681E-02
  2.82902196E-02 -3.37946419E-03 -4.25760832E-03  1.57618611E-03 -3.81183332E-03
  3.81183332E-03  8.16398558E-03  2.23201036E-03 -5.39787237E-03  5.39787237E-03
  5.16521255E-03  1.53025110E-03 -3.70074451E-03  3.70074451E-03  3.68150003E-04
  1.05081457E-04 -2.54127984E-04  2.54127984E-04  3.68470313E-20 -4.41140954E-04
  1.82410979E-04 -1.37561112E-19  4.41140954E-04  2.41363700E-03  3.04251840E-03
  5.77121635E-04 -1.47835437E-04 -4.92006341E-04 -5.02884005E-06  4.70017764E-03
  6.23583244E-03  2.07103564E-03  5.51260984E-04 -3.37946419E-03 -4.25760832E-03
 -3.81183332E-03  1.57618611E-03  3.81183332E-03  8.16398558E-03 -5.39787237E-03
  2.23201036E-03  5.39787237E-03  5.16521255E-03 -3.70074451E-03  1.53025110E-03
  3.70074451E-03  3.68150003E-04 -2.54127984E-04  1.05081457E-04  2.54127984E-04
  6.76563943E-20  1.82410979E-04 -4.41140954E-04 -6.31603764E-21  4.41140954E-04
  2.41363700E-03  3.04251840E-03  5.77121635E-04 -4.92006341E-04 -1.47835437E-04
 -5.02884005E-06  4.70017764E-03  6.23583244E-03  2.07103564E-03  2.07090080E-04
  5.51260984E-04  3.37946419E-03  4.25760832E-03  3.81183332E-03  3.81183332E-03
  1.57618611E-03 -8.16398558E-03  5.39787237E-03  5.39787237E-03  2.23201036E-03
 -5.16521255E-03  3.70074451E-03  3.70074451E-03  1.53025110E-03 -3.68150003E-04
  2.54127984E-04  2.54127984E-04  1.05081457E-04  6.05771706E-20  4.41140954E-04
  4.41140954E-04  3.43153050E-21  1.82410979E-04  3.09703811E-03  4.65352509E-03
  3.02328440E-03  5.02884005E-06  5.02884005E-06 -1.37777757E-04 -4.70017764E-03
 -6.23583244E-03 -2.07103564E-03 -2.07090080E-04 -2.07090080E-04  5.51260984E-04
 -1.84426087E-02 -2.87935414E-02  4.31350010E-02 -4.31350010E-02 -4.31350010E-02
  7.57097858E-02  6.10827417E-02 -6.10827417E-02 -6.10827417E-02  4.74691232E-02
  4.18779115E-02 -4.18779115E-02 -4.18779115E-02  3.30552143E-03  2.87573194E-03
 -2.87573194E-03 -2.87573194E-03 -9.53273877E-19 -4.99198520E-03  4.99198520E-03
 -3.34842272E-19 -4.99198520E-03 -7.23022716E-03 -1.32138851E-02 -1.38706767E-02
  3.09703811E-03 -2.41363700E-03 -2.41363700E-03 -7.23022716E-03 -1.32138851E-02
 -1.38706767E-02  2.41363700E-03 -3.09703811E-03 -2.41363700E-03  8.10036701E-02
 -2.62803851E-02 -3.77826676E-02  6.02410480E-02 -6.02410480E-02 -6.02410480E-02
  8.96819668E-02  8.53063241E-02 -8.53063241E-02 -8.53063241E-02  5.63777454E-02
  5.84854345E-02 -5.84854345E-02 -5.84854345E-02  3.95287867E-03  4.01616094E-03
 -4.01616094E-03 -4.01616094E-03 -1.33131369E-18 -6.97165673E-03  6.97165673E-03
 -4.67630668E-19 -6.97165673E-03 -1.32138851E-02 -2.21208910E-02 -1.95112078E-02
  4.65352509E-03 -3.04251840E-03 -3.04251840E-03 -1.32138851E-02 -2.21208910E-02
 -1.95112078E-02  3.04251840E-03 -4.65352509E-03 -3.04251840E-03  1.10010928E-01
  1.49971185E-01  3.08985520E-03  2.04654613E-03  2.81823034E-02 -2.81823034E-02
 -2.81823034E-02  2.88373472E-03  3.99084808E-02 -3.99084808E-02 -3.99084808E-02
  1.68129166E-03  2.73609825E-02 -2.73609825E-02 -2.73609825E-02  9.39824207E-05
  1.87886283E-03 -1.87886283E-03 -1.87886283E-03 -6.22822604E-19 -3.26151938E-03
  3.26151938E-03 -2.18769590E-19 -3.26151938E-03 -1.38706767E-02 -1.95112078E-02
 -9.37398581E-03  3.02328440E-03 -5.77121635E-04 -5.77121635E-04 -1.38706767E-02
 -1.95112078E-02 -9.37398581E-03  5.77121635E-04 -3.02328440E-03 -5.77121635E-04
  4.37770435E-02  6.09978681E-02  2.82902196E-02  3.37946419E-03  4.25760832E-03
  1.57618611E-03  3.81183332E-03  3.81183332E-03 -8.16398558E-03  2.23201036E-03
  5.39787237E-03  5.39787237E-03 -5.16521255E-03  1.53025110E-03  3.70074451E-03
  3.70074451E-03 -3.68150003E-04  1.05081457E-04  2.54127984E-04  2.54127984E-04
  9.34002043E-20  4.41140954E-04  1.82410979E-04 -1.51199013E-20  4.41140954E-04
  3.09703811E-03  4.65352509E-03  3.02328440E-03 -1.37777757E-04  5.02884005E-06
  5.02884005E-06 -2.41363700E-03 -3.04251840E-03 -5.77121635E-04 -1.47835437E-04
 -5.02884005E-06  4.92006341E-04 -4.70017764E-03 -6.23583244E-03 -2.07103564E-03
  5.51260984E-04 -3.37946419E-03 -4.25760832E-03  3.81183332E-03  1.57618611E-03
 -3.81183332E-03  8.16398558E-03  5.39787237E-03  2.23201036E-03 -5.39787237E-03
  5.16521255E-03  3.70074451E-03  1.53025110E-03 -3.70074451E-03  3.68150003E-04
  2.54127984E-04  1.05081457E-04 -2.54127984E-04 -4.42717606E-20  1.82410979E-04
  4.41140954E-04  5.69452548E-20 -4.41140954E-04  2.41363700E-03  3.04251840E-03
  5.77121635E-04 -5.02884005E-06 -1.47835437E-04 -4.92006341E-04 -3.09703811E-03
 -4.65352509E-03 -3.02328440E-03  5.02884005E-06 -1.37777757E-04 -5.02884005E-06
  4.70017764E-03  6.23583244E-03  2.07103564E-03 -2.07090080E-04  5.51260984E-04
 -3.37946419E-03 -4.25760832E-03  3.81183332E-03 -3.81183332E-03  1.57618611E-03
  8.16398558E-03  5.39787237E-03 -5.39787237E-03  2.23201036E-03  5.16521255E-03
  3.70074451E-03 -3.70074451E-03  1.53025110E-03  3.68150003E-04  2.54127984E-04
 -2.54127984E-04  1.05081457E-04  4.02399765E-21 -4.41140954E-04  4.41140954E-04
 -1.19009681E-19  1.82410979E-04  2.41363700E-03  3.04251840E-03  5.77121635E-04
 -5.02884005E-06 -4.92006341E-04 -1.47835437E-04  2.41363700E-03  3.04251840E-03
  5.77121635E-04  4.92006341E-04  5.02884005E-06 -1.47835437E-04  4.70017764E-03
  6.23583244E-03  2.07103564E-03 -2.07090080E-04  2.07090080E-04  5.51260984E-04
 -1.84426087E-02 -2.87935414E-02 -4.31350010E-02  4.31350010E-02 -4.31350010E-02
  7.57097858E-02 -6.10827417E-02  6.10827417E-02 -6.10827417E-02  4.74691232E-02
 -4.18779115E-02  4.18779115E-02 -4.18779115E-02  3.30552143E-03 -2.87573194E-03
  2.87573194E-03 -2.87573194E-03 -4.59971311E-19  4.99198520E-03 -4.99198520E-03
  1.76658164E-18 -4.99198520E-03 -7.23022716E-03 -1.32138851E-02 -1.38706767E-02
 -2.41363700E-03  3.09703811E-03 -2.41363700E-03 -7.23022716E-03 -1.32138851E-02
 -1.38706767E-02 -3.09703811E-03  2.41363700E-03 -2.41363700E-03 -7.23022716E-03
 -1.32138851E-02 -1.38706767E-02 -2.41363700E-03  2.41363700E-03 -3.09703811E-03
  8.10036701E-02 -2.62803851E-02 -3.77826676E-02 -6.02410480E-02  6.02410480E-02
 -6.02410480E-02  8.96819668E-02 -8.53063241E-02  8.53063241E-02 -8.53063241E-02
  5.63777454E-02 -5.84854345E-02  5.84854345E-02 -5.84854345E-02  3.95287867E-03
 -4.01616094E-03  4.01616094E-03 -4.01616094E-03 -6.42382130E-19  6.97165673E-03
 -6.97165673E-03  2.46715491E-18 -6.97165673E-03 -1.32138851E-02 -2.21208910E-02
 -1.95112078E-02 -3.04251840E-03  4.65352509E-03 -3.04251840E-03 -1.32138851E-02
 -2.21208910E-02 -1.95112078E-02 -4.65352509E-03  3.04251840E-03 -3.04251840E-03
 -1.32138851E-02 -2.21208910E-02 -1.95112078E-02 -3.04251840E-03  3.04251840E-03
 -4.65352509E-03  1.10010928E-01  1.49971185E-01  3.08985520E-03  2.04654613E-03
 -2.81823034E-02  2.81823034E-02 -2.81823034E-02  2.88373472E-03 -3.99084808E-02
  3.99084808E-02 -3.99084808E-02  1.68129166E-03 -2.73609825E-02  2.73609825E-02
 -2.73609825E-02  9.39824207E-05 -1.87886283E-03  1.87886283E-03 -1.87886283E-03
 -3.00522795E-19  3.26151938E-03 -3.26151938E-03  1.15419818E-18 -3.26151938E-03
 -1.38706767E-02 -1.95112078E-02 -9.37398581E-03 -5.77121635E-04  3.02328440E-03
 -5.77121635E-04 -1.38706767E-02 -1.95112078E-02 -9.37398581E-03 -3.02328440E-03
  5.77121635E-04 -5.77121635E-04 -1.38706767E-02 -1.95112078E-02 -9.37398581E-03
 -5.77121635E-04  5.77121635E-04 -3.02328440E-03  4.37770435E-02  6.09978681E-02
  2.82902196E-02 -3.37946419E-03 -4.25760832E-03  1.57618611E-03  3.81183332E-03
 -3.81183332E-03  8.16398558E-03  2.23201036E-03  5.39787237E-03 -5.39787237E-03
  5.16521255E-03  1.53025110E-03  3.70074451E-03 -3.70074451E-03  3.68150003E-04
  1.05081457E-04  2.54127984E-04 -2.54127984E-04 -3.14880527E-20  4.41140954E-04
  1.82410979E-04  1.11402684E-19 -4.41140954E-04  2.41363700E-03  3.04251840E-03
  5.77121635E-04 -1.47835437E-04 -5.02884005E-06 -4.92006341E-04 -3.09703811E-03
 -4.65352509E-03 -3.02328440E-03 -1.37777757E-04  5.02884005E-06 -5.02884005E-06
  2.41363700E-03  3.04251840E-03  5.77121635E-04 -1.47835437E-04  4.92006341E-04
  5.02884005E-06  4.70017764E-03  6.23583244E-03  2.07103564E-03  5.51260984E-04
  3.37946419E-03  4.25760832E-03  3.81183332E-03  1.57618611E-03  3.81183332E-03
 -8.16398558E-03  5.39787237E-03  2.23201036E-03  5.39787237E-03 -5.16521255E-03
  3.70074451E-03  1.53025110E-03  3.70074451E-03 -3.68150003E-04  2.54127984E-04
  1.05081457E-04  2.54127984E-04  8.06164964E-20  1.82410979E-04  4.41140954E-04
 -6.95773301E-20  4.41140954E-04  3.09703811E-03  4.65352509E-03  3.02328440E-03
  5.02884005E-06 -1.37777757E-04  5.02884005E-06 -2.41363700E-03 -3.04251840E-03
 -5.77121635E-04 -5.02884005E-06 -1.47835437E-04  4.92006341E-04 -2.41363700E-03
 -3.04251840E-03 -5.77121635E-04  4.92006341E-04 -1.47835437E-04 -5.02884005E-06
 -4.70017764E-03 -6.23583244E-03 -2.07103564E-03 -2.07090080E-04  5.51260984E-04
 -3.37946419E-03 -4.25760832E-03 -3.81183332E-03  3.81183332E-03  1.57618611E-03
  8.16398558E-03 -5.39787237E-03  5.39787237E-03  2.23201036E-03  5.16521255E-03
 -3.70074451E-03  3.70074451E-03  1.53025110E-03  3.68150003E-04 -2.54127984E-04
  2.54127984E-04  1.05081457E-04  4.76170685E-20  4.41140954E-04 -4.41140954E-04
  6.66928229E-20  1.82410979E-04  2.41363700E-03  3.04251840E-03  5.77121635E-04
 -4.92006341E-04 -5.02884005E-06 -1.47835437E-04  2.41363700E-03  3.04251840E-03
  5.77121635E-04  5.02884005E-06  4.92006341E-04 -1.47835437E-04 -3.09703811E-03
 -4.65352509E-03 -3.02328440E-03 -5.02884005E-06  5.02884005E-06 -1.37777757E-04
  4.70017764E-03  6.23583244E-03  2.07103564E-03  2.07090080E-04 -2.07090080E-04
  5.51260984E-04
Grdnt Energy                               R     -4.053392764387866E+01
Grdnt NVar                                 I               14
Grdnt IGetFC                               I                0
Internal Forces                            R   N=          14
 -4.64253731E-06 -4.64253731E-06 -4.64253730E-06 -4.64253731E-06  4.08177937E-17
  7.02626642E-16 -1.30264770E-16  2.66918880E-16  4.43771042E-16 -1.32387160E-15
  6.43712587E-16 -2.41972210E-16 -2.99332448E-17  2.12040368E-16
Internal Force Constants                   R   N=         105
  3.49608888E-01  3.24309148E-04  3.49608888E-01  3.24309148E-04  3.24309148E-04
  3.49608888E-01  3.24309148E-04  3.24309148E-04  3.24309148E-04  3.49608888E-01
 -4.17530640E-15 -4.17530640E-15 -4.17530640E-15 -4.17530640E-15  1.60000000E-01
 -1.76856825E-14 -1.76856825E-14 -1.76856825E-14 -1.76856825E-14  1.94592783E-27
  1.60000000E-01  2.76239521E-14  2.76239521E-14  2.76239521E-14  2.76239521E-14
 -3.20629709E-27 -7.82553005E-27  1.60000000E-01 -9.39832739E-15 -9.39832739E-15
 -9.39832739E-15 -9.39832739E-15  9.72416863E-28  2.15880386E-27 -3.74919020E-27
  1.60000000E-01  7.87834837E-15  7.87834837E-15  7.87834837E-15  7.87834837E-15
 -5.83062993E-28 -8.22807009E-28  1.60215898E-27 -3.20111029E-28  1.60000000E-01
 -4.20924736E-15 -4.20924736E-15 -4.20924736E-15 -4.20924736E-15  2.03432071E-28
 -1.99886399E-29 -1.38477522E-28 -7.33310832E-29  2.97481525E-28  1.60000000E-01
 -2.91197211E-14 -2.91197211E-14 -2.91197211E-14 -2.91197211E-14  3.01652874E-27
  6.70412477E-27 -1.16403545E-26  3.13067736E-27 -9.98664869E-28 -2.23549571E-28
  2.48058206E-03 -1.21528505E-14 -1.21528505E-14 -1.21528505E-14 -1.21528505E-14
  1.25382096E-27  2.77622033E-27 -4.82414119E-27  1.29503011E-27 -4.07096475E-28
 -9.84824520E-29  4.02303257E-27  2.48058206E-03 -2.90955629E-15 -2.90955629E-15
 -2.90955629E-15 -2.90955629E-15  2.97444919E-28  6.53027713E-28 -1.13679698E-27
  3.03860557E-28 -9.22659419E-29 -2.63610256E-29  9.43998315E-28  3.90399401E-28
  2.48058206E-03  9.24366425E-15  9.24366425E-15  9.24366425E-15  9.24366425E-15
 -9.56414331E-28 -2.12327761E-27  3.68749183E-27 -9.91209231E-28  3.14843137E-28
  7.21243137E-29 -3.07915751E-27 -1.27371851E-27 -2.98860090E-28  2.48058206E-03
Mulliken Charges                           R   N=           5
 -5.08129301E-01  1.27032325E-01  1.27032325E-01  1.27032325E-01  1.27032325E-01
NPA Charges                                R   N=           5
 -8.11511164E-01  2.02877791E-01  2.02877791E-01  2.02877791E-01  2.02877791E-01
Optimization MaxStp                        I              100
Optimization Job offset                    I                0
Optimization Num results per geometry      I                2
Optimization Num geometry variables        I               15
Opt point       1 Results for each geome   R   N=           4
 -4.05339185E+01  0.00000000E+00 -4.05339276E+01  0.00000000E+00
Opt point       1 Geometries               R   N=          30
 -5.88217453E-24 -9.55853074E-24  1.83818318E-24  1.18813590E+00 -1.18813590E+00
  1.18813590E+00 -1.18813590E+00  1.18813590E+00  1.18813590E+00 -1.18813590E+00
 -1.18813590E+00 -1.18813590E+00  1.18813590E+00  1.18813590E+00 -1.18813590E+00
  0.00000000E+00  0.00000000E+00  0.00000000E+00  1.19023187E+00  1.19023187E+00
  1.19023187E+00 -1.19023187E+00 -1.19023187E+00  1.19023187E+00  1.19023187E+00
 -1.19023187E+00 -1.19023187E+00 -1.19023187E+00  1.19023187E+00 -1.19023187E+00
Opt point       1 Gradient at each geome   R   N=          30
 -2.65065747E-15 -2.28289609E-15 -2.28983499E-16 -7.32128288E-04  7.32128288E-04
 -7.32128288E-04  7.32128288E-04 -7.32128288E-04 -7.32128288E-04  7.32128288E-04
  7.32128288E-04  7.32128288E-04 -7.32128288E-04 -7.32128288E-04  7.32128288E-04
  6.10622664E-16 -5.13478149E-16 -2.19269047E-15  2.68037016E-06  2.68037016E-06
  2.68037016E-06 -2.68037016E-06 -2.68037016E-06  2.68037017E-06  2.68037016E-06
 -2.68037016E-06 -2.68037016E-06 -2.68037016E-06  2.68037016E-06 -2.68037016E-06
Optimization Number of geometries          I   N=           1
           2
ONIOM Charges                              I   N=          16
           0           0           0           0           0           0
           0           0           0           0           0           0
           0           0           0           0
ONIOM Multiplicities                       I   N=          16
           1           0           0           0           0           0
           0           0           0           0           0           0
           0           0           0           0
Atom Layers                                I   N=           5
           1           1           1           1           1
Atom Modifiers                             I   N=           5
           0           0           0           0           0
Force Field                                I                0
Atom Modified Types                        C   N=           5
                                                            
Int Atom Modified Types                    I   N=           5
           0           0           0           0           0
Link Atoms                                 I   N=           5
           0           0           0           0           0
Atom Modified MM Charges                   R   N=           5
  0.00000000E+00  0.00000000E+00  0.00000000E+00  0.00000000E+00  0.00000000E+00
Link Distances                             R   N=          20
  0.00000000E+00  0.00000000E+00  0.00000000E+00  0.00000000E+00  0.00000000E+00
  0.00000000E+00  0.00000000E+00  0.00000000E+00  0.00000000E+00  0.00000000E+00
  0.00000000E+00  0.00000000E+00  0.00000000E+00  0.00000000E+00  0.00000000E+00
  0.00000000E+00  0.00000000E+00  0.00000000E+00  0.00000000E+00  0.00000000E+00
Cartesian Gradient                         R   N=          15
  6.10622664E-16 -5.13478149E-16 -2.19269047E-15  2.68037016E-06  2.68037016E-06
  2.68037016E-06 -2.68037016E-06 -2.68037016E-06  2.68037017E-06  2.68037016E-06
 -2.68037016E-06 -2.68037016E-06 -2.68037016E-06  2.68037016E-06 -2.68037016E-06
Nonadiabatic coupling                      R   N=          15
  0.00000000E+00  0.00000000E+00  0.00000000E+00  0.00000000E+00  0.00000000E+00
  0.00000000E+00  0.00000000E+00  0.00000000E+00  0.00000000E+00  0.00000000E+00
  0.00000000E+00  0.00000000E+00  0.00000000E+00  0.00000000E+00  0.00000000E+00
Dipole Moment                              R   N=           3
 -1.30575889E-15 -7.22078647E-16 -1.50731207E-16
Quadrupole Moment                          R   N=           6
 -7.10542736E-15  8.88178420E-15 -1.77635684E-15  5.03777250E-15 -4.52421304E-15
 -4.13563498E-15
QEq coupling tensors                       R   N=          30
  7.57912251E-14 -2.51187959E-14  0.00000000E+00 -6.70297151E-15 -8.63753513E-14
  1.89326617E-29  2.49800181E-16 -1.55981312E-01 -8.32667268E-17 -1.55981312E-01
 -1.55981312E-01 -3.05311332E-16 -4.96519199E-17 -1.55981312E-01 -7.83494094E-17
  1.55981312E-01  1.55981312E-01  2.77555756E-17  3.46944695E-16  1.55981312E-01
  6.87858913E-17  1.55981312E-01 -1.55981312E-01 -5.89906282E-16 -5.34786824E-16
  1.55981312E-01  6.38378239E-16 -1.55981312E-01  1.55981312E-01  5.72222229E-16
ClPar MaxAn                                I              200
ClPar NIntPar                              I                4
ClPar NRealPar                             I               16
ClPar NBits                                I               30
ClPar LenBitVec                            I                1
ClPar Read BitMap                          I   N=         200
           0           0           0           0           0           0
           0           0           0           0           0           0
           0           0           0           0           0           0
           0           0           0           0           0           0
           0           0           0           0           0           0
           0           0           0           0           0           0
           0           0           0           0           0           0
           0           0           0           0           0           0
           0           0           0           0           0           0
           0           0           0           0           0           0
           0           0           0           0           0           0
           0           0           0           0           0           0
           0           0           0           0           0           0
           0           0           0           0           0           0
           0           0           0           0           0           0
           0           0           0           0           0           0
           0           0           0           0           0           0
           0           0           0           0           0           0
           0           0           0           0           0           0
           0           0           0           0           0           0
           0           0           0           0           0           0
           0           0           0           0           0           0
           0           0           0           0           0           0
           0           0           0           0           0           0
           0           0           0           0           0           0
           0           0           0           0           0           0
           0           0           0           0           0           0
           0           0           0           0           0           0
           0           0           0           0           0           0
           0           0           0           0           0           0
           0           0           0           0           0           0
           0           0           0           0           0           0
           0           0           0           0           0           0
           0           0
ClPar Default BitMap                       I   N=         200
        2016        2016        2016        2016        2016        2016
        2016        2016        2016        2016        2016        2016
        2016        2016        2016        2016        2016        2016
        2016        2016        2016        2016        2016        2016
        2016        2016        2016        2016        2016        2016
        2016        2016        2016        2016        2016        2016
        2016        2016        2016        2016        2016        2016
        2016        2016        2016        2016        2016        2016
        2016        2016        2016        2016        2016        2016
        2016        2016        2016        2016        2016        2016
        2016        2016        2016        2016        2016        2016
        2016        2016        2016        2016        2016        2016
        2016        2016        2016        2016        2016        2016
        2016        2016        2016        2016        2016        2016
        2016        2016         480         480         480         480
         480         480         480         480         480         480
         480         480         480         480         480         480
         480         480         480         480         480         480
         480         480         480         480         480         480
         480         480         480         480         480         480
         480         480         480         480         480         480
         480         480         480         480         480         480
         480         480         480         480         480         480
         480         480         480         480         480         480
         480         480         480         480         480         480
         480         480         480         480         480         480
         480         480         480         480         480         480
         480         480         480         480         480         480
         480         480         480         480         480         480
         480         480         480         480         480         480
         480         480         480         480         480         480
         480         480         480         480         480         480
         480         480         480         480         480         480
         480         480
ClPar Int Params                           I   N=         800
           0           0           0           0           0           0
           0           0           0           0           0           0
           0           0           0           0           0           0
           0           0           0           0           0           0
           0           0           0           0           0           0
           0           0           0           0           0           0
           0           0           0           0           0           0
           0           0           0           0           0           0
           0           0           0           0           0           0
           0           0           0           0           0           0
           0           0           0           0           0           0
           0           0           0           0           0           0
           0           0           0           0           0           0
           0           0           0           0           0           0
           0           0           0           0           0           0
           0           0           0           0           0           0
           0           0           0           0           0           0
           0           0           0           0           0           0
           0           0           0           0           0           0
           0           0           0           0           0           0
           0           0           0           0           0           0
           0           0           0           0           0           0
           0           0           0           0           0           0
           0           0           0           0           0           0
           0           0           0           0           0           0
           0           0           0           0           0           0
           0           0           0           0           0           0
           0           0           0           0           0           0
           0           0           0           0           0           0
           0           0           0           0           0           0
           0           0           0           0           0           0
           0           0           0           0           0           0
           0           0           0           0           0           0
           0           0           0           0           0           0
           0           0           0           0           0           0
           0           0           0           0           0           0
           0           0           0           0           0           0
           0           0           0           0           0           0
           0           0           0           0           0           0
           0           0           0           0           0           0
           0           0           0           0           0           0
           0           0           0           0           0           0
           0           0           0           0           0           0
           0           0           0           0           0           0
           0           0           0           0           0           0
           0           0           0           0           0           0
           0           0           0           0           0           0
           0           0           0           0           0           0
           0           0           0           0           0           0
           0           0           0           0           0           0
           0           0           0           0           0           0
           0           0           0           0           0           0
           0           0           0           0           0           0
           0           0           0           0           0           0
           0           0           0           0           0           0
           0           0           0           0           0           0
           0           0           0           0           0           0
           0           0           0           0           0           0
           0           0           0           0           0           0
           0           0           0           0           0           0
           0           0           0           0           0           0
           0           0           0           0           0           0
           0           0           0           0           0           0
           0           0           0           0           0           0
           0           0           0           0           0           0
           0           0           0           0           0           0
           0           0           0           0           0           0
           0           0           0           0           0           0
           0           0           0           0           0           0
           0           0           0           0           0           0
           0           0           0           0           0           0
           0           0           0           0           0           0
           0           0           0           0           0           0
           0           0           0           0           0           0
           0           0           0           0           0           0
           0           0           0           0           0           0
           0           0           0           0           0           0
           0           0           0           0           0           0
           0           0           0           0           0           0
           0           0           0           0           0           0
           0           0           0           0           0           0
           0           0           0           0           0           0
           0           0           0           0           0           0
           0           0           0           0           0           0
           0           0           0           0           0           0
           0           0           0           0           0           0
           0           0           0           0           0           0
           0           0           0           0           0           0
           0           0           0           0           0           0
           0           0           0           0           0           0
           0           0           0           0           0           0
           0           0           0           0           0           0
           0           0           0           0           0           0
           0           0           0           0           0           0
           0           0           0           0           0           0
           0           0           0           0           0           0
           0           0           0           0           0           0
           0           0           0           0           0           0
           0           0           0           0           0           0
           0           0           0           0           0           0
           0           0           0           0           0           0
           0           0           0           0           0           0
           0           0           0           0           0           0
           0           0           0           0           0           0
           0           0           0           0           0           0
           0           0           0           0           0           0
           0           0           0           0           0           0
           0           0           0           0           0           0
           0           0           0           0           0           0
           0           0           0           0           0           0
           0           0           0           0           0           0
           0           0           0           0           0           0
           0           0           0           0           0           0
           0           0           0           0           0           0
           0           0           0           0           0           0
           0           0           0           0           0           0
           0           0           0           0           0           0
           0           0           0           0           0           0
           0           0           0           0           0           0
           0           0           0           0           0           0
           0           0           0           0           0           0
           0           0           0           0           0           0
           0           0           0           0           0           0
           0           0           0           0           0           0
           0           0           0           0           0           0
           0           0           0           0           0           0
           0           0           0           0           0           0
           0           0           0           0           0           0
           0           0           0           0           0           0
           0           0           0           0           0           0
           0           0           0           0           0           0
           0           0           0           0           0           0
           0           0           0           0           0           0
           0           0
ClPar Real Params                          R   N=        3200
  0.00000000E+00  0.00000000E+00  0.00000000E+00  0.00000000E+00  0.00000000E+00
  0.00000000E+00  0.00000000E+00  0.00000000E+00  0.00000000E+00  0.00000000E+00
  0.00000000E+00  0.00000000E+00  0.00000000E+00  0.00000000E+00  0.00000000E+00
  0.00000000E+00  0.00000000E+00  0.00000000E+00  0.00000000E+00  0.00000000E+00
  0.00000000E+00  0.00000000E+00  0.00000000E+00  0.00000000E+00  0.00000000E+00
  0.00000000E+00  0.00000000E+00  0.00000000E+00  0.00000000E+00  0.00000000E+00
  0.00000000E+00  0.00000000E+00  0.00000000E+00  0.00000000E+00  0.00000000E+00
  0.00000000E+00  0.00000000E+00  0.00000000E+00  0.00000000E+00  0.00000000E+00
  0.00000000E+00  0.00000000E+00  0.00000000E+00  0.00000000E+00  0.00000000E+00
  0.00000000E+00  0.00000000E+00  0.00000000E+00  0.00000000E+00  0.00000000E+00
  0.00000000E+00  0.00000000E+00  0.00000000E+00  0.00000000E+00  0.00000000E+00
  0.00000000E+00  0.00000000E+00  0.00000000E+00  0.00000000E+00  0.00000000E+00
  0.00000000E+00  0.00000000E+00  0.00000000E+00  0.00000000E+00  0.00000000E+00
  0.00000000E+00  0.00000000E+00  0.00000000E+00  0.00000000E+00  0.00000000E+00
  0.00000000E+00  0.00000000E+00  0.00000000E+00  0.00000000E+00  0.00000000E+00
  0.00000000E+00  0.00000000E+00  0.00000000E+00  0.00000000E+00  0.00000000E+00
  0.00000000E+00  0.00000000E+00  0.00000000E+00  0.00000000E+00  0.00000000E+00
  0.00000000E+00  0.00000000E+00  0.00000000E+00  0.00000000E+00  0.00000000E+00
  0.00000000E+00  0.00000000E+00  0.00000000E+00  0.00000000E+00  0.00000000E+00
  0.00000000E+00  0.00000000E+00  0.00000000E+00  0.00000000E+00  0.00000000E+00
  0.00000000E+00  0.00000000E+00  0.00000000E+00  0.00000000E+00  0.00000000E+00
  0.00000000E+00  0.00000000E+00  0.00000000E+00  0.00000000E+00  0.00000000E+00
  0.00000000E+00  0.00000000E+00  0.00000000E+00  0.00000000E+00  0.00000000E+00
  0.00000000E+00  0.00000000E+00  0.00000000E+00  0.00000000E+00  0.00000000E+00
  0.00000000E+00  0.00000000E+00  0.00000000E+00  0.00000000E+00  0.00000000E+00
  0.00000000E+00  0.00000000E+00  0.00000000E+00  0.00000000E+00  0.00000000E+00
  0.00000000E+00  0.00000000E+00  0.00000000E+00  0.00000000E+00  0.00000000E+00
  0.00000000E+00  0.00000000E+00  0.00000000E+00  0.00000000E+00  0.00000000E+00
  0.00000000E+00  0.00000000E+00  0.00000000E+00  0.00000000E+00  0.00000000E+00
  0.00000000E+00  0.00000000E+00  0.00000000E+00  0.00000000E+00  0.00000000E+00
  0.00000000E+00  0.00000000E+00  0.00000000E+00  0.00000000E+00  0.00000000E+00
  0.00000000E+00  0.00000000E+00  0.00000000E+00  0.00000000E+00  0.00000000E+00
  0.00000000E+00  0.00000000E+00  0.00000000E+00  0.00000000E+00  0.00000000E+00
  0.00000000E+00  0.00000000E+00  0.00000000E+00  0.00000000E+00  0.00000000E+00
  0.00000000E+00  0.00000000E+00  0.00000000E+00  0.00000000E+00  0.00000000E+00
  0.00000000E+00  0.00000000E+00  0.00000000E+00  0.00000000E+00  0.00000000E+00
  0.00000000E+00  0.00000000E+00  0.00000000E+00  0.00000000E+00  0.00000000E+00
  0.00000000E+00  0.00000000E+00  0.00000000E+00  0.00000000E+00  0.00000000E+00
  0.00000000E+00  0.00000000E+00  0.00000000E+00  0.00000000E+00  0.00000000E+00
  0.00000000E+00  0.00000000E+00  0.00000000E+00  0.00000000E+00  0.00000000E+00
  2.26000000E-01  4.43000000E-01  1.01000000E-01  1.47000000E-01  1.92000000E-01
  2.40000000E-01  2.75000000E-01  3.03000000E-01  3.25000000E-01  4.13000000E-01
  9.60000000E-02  1.35000000E-01  1.73000000E-01  2.11000000E-01  2.48000000E-01
  2.86000000E-01  3.23000000E-01  3.60000000E-01  8.20000000E-02  1.04000000E-01
  1.17000000E-01  1.23000000E-01  1.29000000E-01  1.34000000E-01  1.40000000E-01
  1.44000000E-01  1.48000000E-01  1.52000000E-01  1.55000000E-01  1.76000000E-01
  1.98000000E-01  2.19000000E-01  2.39000000E-01  2.60000000E-01  2.80000000E-01
  3.00000000E-01  7.90000000E-02  9.90000000E-02  1.19000000E-01  1.26000000E-01
  1.33000000E-01  1.40000000E-01  1.47000000E-01  1.53000000E-01  1.58000000E-01
  1.63000000E-01  1.57000000E-01  1.70000000E-01  1.87000000E-01  2.03000000E-01
  2.19000000E-01  2.34000000E-01  2.50000000E-01  2.65000000E-01  7.40000000E-02
  9.20000000E-02  1.05000000E-01  1.06000000E-01  1.07000000E-01  1.08000000E-01
  1.09000000E-01  1.10000000E-01  1.11000000E-01  1.12000000E-01  1.13000000E-01
  1.14000000E-01  1.15000000E-01  1.16000000E-01  1.17000000E-01  1.17000000E-01
  1.26000000E-01  1.36000000E-01  1.46000000E-01  1.55000000E-01  1.65000000E-01
  1.73000000E-01  1.82000000E-01  1.90000000E-01  1.62000000E-01  1.78000000E-01
  1.10000000E-01  1.35000000E-01  1.59000000E-01  1.83000000E-01  2.07000000E-01
  2.31000000E-01  6.90000000E-02  9.40000000E-02  1.02000000E-01  1.03000000E-01
  1.05000000E-01  1.07000000E-01  1.09000000E-01  1.11000000E-01  1.13000000E-01
  1.15000000E-01  1.17000000E-01  1.19000000E-01  1.20000000E-01  1.22000000E-01
  1.24000000E-01  1.26000000E-01  1.28000000E-01  1.28000000E-01  1.28000000E-01
  1.28000000E-01  1.28000000E-01  1.28000000E-01  1.28000000E-01  1.28000000E-01
  1.28000000E-01  1.28000000E-01  1.28000000E-01  1.28000000E-01  1.28000000E-01
  1.28000000E-01  1.28000000E-01  1.28000000E-01  1.28000000E-01  1.28000000E-01
  1.28000000E-01  1.28000000E-01  1.28000000E-01  1.28000000E-01  1.28000000E-01
  1.28000000E-01  1.28000000E-01  1.28000000E-01  1.28000000E-01  1.28000000E-01
  1.28000000E-01  1.28000000E-01  1.28000000E-01  1.28000000E-01  1.28000000E-01
  1.28000000E-01  1.28000000E-01  1.28000000E-01  1.28000000E-01  1.28000000E-01
  1.28000000E-01  1.28000000E-01  1.28000000E-01  1.28000000E-01  1.28000000E-01
  1.28000000E-01  1.28000000E-01  1.28000000E-01  1.28000000E-01  1.28000000E-01
  1.28000000E-01  1.28000000E-01  1.28000000E-01  1.28000000E-01  1.28000000E-01
  1.28000000E-01  1.28000000E-01  1.28000000E-01  1.28000000E-01  1.28000000E-01
  1.28000000E-01  1.28000000E-01  1.28000000E-01  1.28000000E-01  1.28000000E-01
  1.28000000E-01  1.28000000E-01  1.28000000E-01  1.28000000E-01  1.28000000E-01
  1.28000000E-01  1.28000000E-01  1.28000000E-01  1.28000000E-01  1.28000000E-01
  1.28000000E-01  1.28000000E-01  1.28000000E-01  1.28000000E-01  1.28000000E-01
  1.28000000E-01  1.28000000E-01  1.28000000E-01  1.28000000E-01  1.28000000E-01
  1.28000000E-01  1.28000000E-01  1.28000000E-01  1.28000000E-01  1.28000000E-01
  1.28000000E-01  1.28000000E-01  1.28000000E-01  1.28000000E-01  1.28000000E-01
  1.28000000E-01  1.28000000E-01  1.28000000E-01  1.28000000E-01  1.28000000E-01
  5.47000000E-01  5.92000000E-01  5.99000000E-01  6.68000000E-01  6.98000000E-01
  7.18000000E-01  7.26000000E-01  7.36000000E-01  7.43000000E-01  7.45000000E-01
  6.07000000E-01  6.66000000E-01  6.93000000E-01  7.09000000E-01  7.20000000E-01
  7.29000000E-01  7.35000000E-01  7.40000000E-01  6.08000000E-01  7.34000000E-01
  7.46000000E-01  7.55000000E-01  7.61000000E-01  7.65000000E-01  7.67000000E-01
  7.60000000E-01  7.49000000E-01  7.33000000E-01  7.08000000E-01  6.48000000E-01
  6.88000000E-01  7.09000000E-01  7.22000000E-01  7.31000000E-01  7.38000000E-01
  7.44000000E-01  6.09000000E-01  7.30000000E-01  7.41000000E-01  7.52000000E-01
  7.58000000E-01  7.63000000E-01  7.66000000E-01  7.58000000E-01  7.48000000E-01
  7.33000000E-01  7.01000000E-01  6.45000000E-01  6.86000000E-01  7.08000000E-01
  7.22000000E-01  7.31000000E-01  7.38000000E-01  7.44000000E-01  6.08000000E-01
  7.28000000E-01  7.32000000E-01  7.32000000E-01  7.32000000E-01  7.32000000E-01
  7.32000000E-01  7.32000000E-01  7.32000000E-01  7.32000000E-01  7.32000000E-01
  7.31000000E-01  7.31000000E-01  7.31000000E-01  7.31000000E-01  7.46000000E-01
  7.37000000E-01  7.46000000E-01  7.51000000E-01  7.55000000E-01  7.58000000E-01
  7.47000000E-01  7.32000000E-01  7.11000000E-01  7.41000000E-01  7.07000000E-01
  7.47000000E-01  7.43000000E-01  7.42000000E-01  7.42000000E-01  7.43000000E-01
  7.44000000E-01  6.05000000E-01  7.24000000E-01  7.26000000E-01  7.26000000E-01
  7.27000000E-01  7.27000000E-01  7.27000000E-01  7.28000000E-01  7.28000000E-01
  7.28000000E-01  7.28000000E-01  7.28000000E-01  7.29000000E-01  7.29000000E-01
  7.29000000E-01  7.29000000E-01  7.29000000E-01  7.29000000E-01  7.29000000E-01
  7.29000000E-01  7.29000000E-01  7.29000000E-01  7.29000000E-01  7.29000000E-01
  7.29000000E-01  7.29000000E-01  7.29000000E-01  7.29000000E-01  7.29000000E-01
  7.29000000E-01  7.29000000E-01  7.29000000E-01  7.29000000E-01  7.29000000E-01
  7.29000000E-01  7.29000000E-01  7.29000000E-01  7.29000000E-01  7.29000000E-01
  7.29000000E-01  7.29000000E-01  7.29000000E-01  7.29000000E-01  7.29000000E-01
  7.29000000E-01  7.29000000E-01  7.29000000E-01  7.29000000E-01  7.29000000E-01
  7.29000000E-01  7.29000000E-01  7.29000000E-01  7.29000000E-01  7.29000000E-01
  7.29000000E-01  7.29000000E-01  7.29000000E-01  7.29000000E-01  7.29000000E-01
  7.29000000E-01  7.29000000E-01  7.29000000E-01  7.29000000E-01  7.29000000E-01
  7.29000000E-01  7.29000000E-01  7.29000000E-01  7.29000000E-01  7.29000000E-01
  7.29000000E-01  7.29000000E-01  7.29000000E-01  7.29000000E-01  7.29000000E-01
  7.29000000E-01  7.29000000E-01  7.29000000E-01  7.29000000E-01  7.29000000E-01
  7.29000000E-01  7.29000000E-01  7.29000000E-01  7.29000000E-01  7.29000000E-01
  7.29000000E-01  7.29000000E-01  7.29000000E-01  7.29000000E-01  7.29000000E-01
  7.29000000E-01  7.29000000E-01  7.29000000E-01  7.29000000E-01  7.29000000E-01
  7.29000000E-01  7.29000000E-01  7.29000000E-01  7.29000000E-01  7.29000000E-01
  7.29000000E-01  7.29000000E-01  7.29000000E-01  7.29000000E-01  7.29000000E-01
  7.29000000E-01  7.29000000E-01  7.29000000E-01  7.29000000E-01  7.29000000E-01
  7.29000000E-01  7.29000000E-01  7.29000000E-01  7.29000000E-01  7.29000000E-01
  1.00000000E+00  1.70400000E+00  3.23000000E-01  3.89000000E-01  4.67000000E-01
  5.67000000E-01  6.36000000E-01  6.64000000E-01  6.96000000E-01  8.79000000E-01
  3.07000000E-01  3.48000000E-01  4.00000000E-01  4.54000000E-01  5.09000000E-01
  5.65000000E-01  6.21000000E-01  6.77000000E-01  2.56000000E-01  3.50000000E-01
  3.64000000E-01  3.62000000E-01  3.62000000E-01  3.62000000E-01  3.62000000E-01
  3.65000000E-01  3.69000000E-01  3.75000000E-01  3.86000000E-01  4.46000000E-01
  4.55000000E-01  4.74000000E-01  4.96000000E-01  5.20000000E-01  5.45000000E-01
  5.70000000E-01  2.45000000E-01  3.22000000E-01  3.55000000E-01  3.59000000E-01
  3.64000000E-01  3.70000000E-01  3.76000000E-01  3.85000000E-01  3.95000000E-01
  4.08000000E-01  3.76000000E-01  4.23000000E-01  4.22000000E-01  4.32000000E-01
  4.45000000E-01  4.59000000E-01  4.75000000E-01  4.91000000E-01  2.28000000E-01
  2.92000000E-01  2.89000000E-01  2.92000000E-01  2.95000000E-01  2.98000000E-01
  3.00000000E-01  3.03000000E-01  3.06000000E-01  3.09000000E-01  3.12000000E-01
  3.15000000E-01  3.18000000E-01  3.21000000E-01  3.24000000E-01  3.61000000E-01
  3.69000000E-01  3.70000000E-01  3.72000000E-01  3.75000000E-01  3.78000000E-01
  3.85000000E-01  3.94000000E-01  4.07000000E-01  5.26000000E-01  6.21000000E-01
  3.36000000E-01  3.54000000E-01  3.71000000E-01  3.86000000E-01  4.02000000E-01
  4.17000000E-01  2.09000000E-01  2.94000000E-01  2.65000000E-01  2.72000000E-01
  2.78000000E-01  2.84000000E-01  2.91000000E-01  2.97000000E-01  3.03000000E-01
  3.10000000E-01  3.16000000E-01  3.22000000E-01  3.29000000E-01  3.35000000E-01
  3.41000000E-01  3.48000000E-01  3.54000000E-01  3.54000000E-01  3.54000000E-01
  3.54000000E-01  3.54000000E-01  3.54000000E-01  3.54000000E-01  3.54000000E-01
  3.54000000E-01  3.54000000E-01  3.54000000E-01  3.54000000E-01  3.54000000E-01
  3.54000000E-01  3.54000000E-01  3.54000000E-01  3.54000000E-01  3.54000000E-01
  3.54000000E-01  3.54000000E-01  3.54000000E-01  3.54000000E-01  3.54000000E-01
  3.54000000E-01  3.54000000E-01  3.54000000E-01  3.54000000E-01  3.54000000E-01
  3.54000000E-01  3.54000000E-01  3.54000000E-01  3.54000000E-01  3.54000000E-01
  3.54000000E-01  3.54000000E-01  3.54000000E-01  3.54000000E-01  3.54000000E-01
  3.54000000E-01  3.54000000E-01  3.54000000E-01  3.54000000E-01  3.54000000E-01
  3.54000000E-01  3.54000000E-01  3.54000000E-01  3.54000000E-01  3.54000000E-01
  3.54000000E-01  3.54000000E-01  3.54000000E-01  3.54000000E-01  3.54000000E-01
  3.54000000E-01  3.54000000E-01  3.54000000E-01  3.54000000E-01  3.54000000E-01
  3.54000000E-01  3.54000000E-01  3.54000000E-01  3.54000000E-01  3.54000000E-01
  3.54000000E-01  3.54000000E-01  3.54000000E-01  3.54000000E-01  3.54000000E-01
  3.54000000E-01  3.54000000E-01  3.54000000E-01  3.54000000E-01  3.54000000E-01
  3.54000000E-01  3.54000000E-01  3.54000000E-01  3.54000000E-01  3.54000000E-01
  3.54000000E-01  3.54000000E-01  3.54000000E-01  3.54000000E-01  3.54000000E-01
  3.54000000E-01  3.54000000E-01  3.54000000E-01  3.54000000E-01  3.54000000E-01
  3.54000000E-01  3.54000000E-01  3.54000000E-01  3.54000000E-01  3.54000000E-01
  3.54000000E-01  3.54000000E-01  3.54000000E-01  3.54000000E-01  3.54000000E-01
  2.74000000E-01  2.96000000E-01  5.80000000E-02  4.40000000E-02  3.90000000E-02
  3.90000000E-02  3.60000000E-02  3.20000000E-02  2.90000000E-02  3.30000000E-02
  5.50000000E-02  3.90000000E-02  3.30000000E-02  3.00000000E-02  2.80000000E-02
  2.60000000E-02  2.50000000E-02  2.50000000E-02  4.50000000E-02  4.40000000E-02
  3.30000000E-02  2.50000000E-02  2.10000000E-02  1.80000000E-02  1.50000000E-02
  1.80000000E-02  2.10000000E-02  2.50000000E-02  3.30000000E-02  5.00000000E-02
  3.80000000E-02  3.10000000E-02  2.70000000E-02  2.40000000E-02  2.20000000E-02
  2.10000000E-02  4.30000000E-02  4.00000000E-02  3.20000000E-02  2.50000000E-02
  2.10000000E-02  1.80000000E-02  1.60000000E-02  1.90000000E-02  2.20000000E-02
  2.80000000E-02  3.10000000E-02  4.70000000E-02  3.40000000E-02  2.80000000E-02
  2.40000000E-02  2.10000000E-02  1.90000000E-02  1.80000000E-02  3.90000000E-02
  3.60000000E-02  2.50000000E-02  2.50000000E-02  2.50000000E-02  2.60000000E-02
  2.60000000E-02  2.60000000E-02  2.70000000E-02  2.70000000E-02  2.70000000E-02
  2.70000000E-02  2.80000000E-02  2.80000000E-02  2.80000000E-02  3.30000000E-02
  3.30000000E-02  2.60000000E-02  2.10000000E-02  1.80000000E-02  1.60000000E-02
  1.80000000E-02  2.20000000E-02  2.60000000E-02  4.90000000E-02  8.20000000E-02
  3.00000000E-02  2.40000000E-02  2.10000000E-02  1.80000000E-02  1.60000000E-02
  1.50000000E-02  3.50000000E-02  3.60000000E-02  2.20000000E-02  2.30000000E-02
  2.40000000E-02  2.40000000E-02  2.50000000E-02  2.50000000E-02  2.60000000E-02
  2.70000000E-02  2.70000000E-02  2.80000000E-02  2.80000000E-02  2.90000000E-02
  3.00000000E-02  3.00000000E-02  3.10000000E-02  3.10000000E-02  3.10000000E-02
  3.10000000E-02  3.10000000E-02  3.10000000E-02  3.10000000E-02  3.10000000E-02
  3.10000000E-02  3.10000000E-02  3.10000000E-02  3.10000000E-02  3.10000000E-02
  3.10000000E-02  3.10000000E-02  3.10000000E-02  3.10000000E-02  3.10000000E-02
  3.10000000E-02  3.10000000E-02  3.10000000E-02  3.10000000E-02  3.10000000E-02
  3.10000000E-02  3.10000000E-02  3.10000000E-02  3.10000000E-02  3.10000000E-02
  3.10000000E-02  3.10000000E-02  3.10000000E-02  3.10000000E-02  3.10000000E-02
  3.10000000E-02  3.10000000E-02  3.10000000E-02  3.10000000E-02  3.10000000E-02
  3.10000000E-02  3.10000000E-02  3.10000000E-02  3.10000000E-02  3.10000000E-02
  3.10000000E-02  3.10000000E-02  3.10000000E-02  3.10000000E-02  3.10000000E-02
  3.10000000E-02  3.10000000E-02  3.10000000E-02  3.10000000E-02  3.10000000E-02
  3.10000000E-02  3.10000000E-02  3.10000000E-02  3.10000000E-02  3.10000000E-02
  3.10000000E-02  3.10000000E-02  3.10000000E-02  3.10000000E-02  3.10000000E-02
  3.10000000E-02  3.10000000E-02  3.10000000E-02  3.10000000E-02  3.10000000E-02
  3.10000000E-02  3.10000000E-02  3.10000000E-02  3.10000000E-02  3.10000000E-02
  3.10000000E-02  3.10000000E-02  3.10000000E-02  3.10000000E-02  3.10000000E-02
  3.10000000E-02  3.10000000E-02  3.10000000E-02  3.10000000E-02  3.10000000E-02
  3.10000000E-02  3.10000000E-02  3.10000000E-02  3.10000000E-02  3.10000000E-02
  3.10000000E-02  3.10000000E-02  3.10000000E-02  3.10000000E-02  3.10000000E-02
  3.10000000E-02  3.10000000E-02  3.10000000E-02  3.10000000E-02  3.10000000E-02
 -5.92770000E-01 -9.17860000E-01 -2.48668000E+00 -8.36430000E-01 -3.18470000E-01
 -4.55790000E-01 -5.70730000E-01 -6.77940000E-01 -7.69860000E-01 -8.51140000E-01
 -1.51908000E+00 -3.18830000E-01 -2.17900000E-01 -3.01260000E-01 -3.72750000E-01
 -4.15890000E-01 -4.45930000E-01 -5.91320000E-01 -9.56370000E-01 -2.88450000E-01
 -4.87320000E-01 -6.34280000E-01 -7.17490000E-01 -7.91980000E-01 -8.68490000E-01
 -9.17520000E-01 -9.54890000E-01 -9.88460000E-01 -1.50055000E+00 -2.92560000E-01
 -2.14960000E-01 -2.91180000E-01 -3.42080000E-01 -3.84480000E-01 -4.34940000E-01
 -5.24310000E-01 -8.10070000E-01 -2.58460000E-01 -4.35550000E-01 -5.32740000E-01
 -6.08450000E-01 -6.10260000E-01 -7.58920000E-01 -8.90130000E-01 -8.45780000E-01
 -8.69340000E-01 -1.38234000E+00 -2.64850000E-01 -1.97280000E-01 -2.65040000E-01
 -2.94470000E-01 -3.16570000E-01 -3.63590000E-01 -4.57840000E-01 -8.61830000E-01
 -1.33004000E+00 -6.82880000E-01 -6.25540000E-01 -6.35430000E-01 -8.79690000E-01
 -9.02690000E-01 -9.59650000E-01 -1.01869000E+00 -6.81170000E-01 -7.96500000E-01
 -9.04950000E-01 -8.34790000E-01 -9.01560000E-01 -9.74130000E-01 -1.03326000E+00
 -7.15490000E-01 -7.83960000E-01 -8.28380000E-01 -5.61040000E-01 -1.03841000E+00
 -8.62500000E-01 -9.59300000E-01 -1.01755000E+00 -7.64900000E-01 -1.29467000E+00
 -1.92740000E-01 -2.56010000E-01 -3.19820000E-01 -1.94660000E-01 -2.60090000E-01
 -4.27990000E-01  0.00000000E+00  0.00000000E+00  0.00000000E+00  0.00000000E+00
  0.00000000E+00  0.00000000E+00  0.00000000E+00  0.00000000E+00  0.00000000E+00
  0.00000000E+00  0.00000000E+00  0.00000000E+00  0.00000000E+00  0.00000000E+00
  0.00000000E+00  0.00000000E+00  0.00000000E+00  0.00000000E+00  0.00000000E+00
  0.00000000E+00  0.00000000E+00  0.00000000E+00  0.00000000E+00  0.00000000E+00
  0.00000000E+00  0.00000000E+00  0.00000000E+00  0.00000000E+00  0.00000000E+00
  0.00000000E+00  0.00000000E+00  0.00000000E+00  0.00000000E+00  0.00000000E+00
  0.00000000E+00  0.00000000E+00  0.00000000E+00  0.00000000E+00  0.00000000E+00
  0.00000000E+00  0.00000000E+00  0.00000000E+00  0.00000000E+00  0.00000000E+00
  0.00000000E+00  0.00000000E+00  0.00000000E+00  0.00000000E+00  0.00000000E+00
  0.00000000E+00  0.00000000E+00  0.00000000E+00  0.00000000E+00  0.00000000E+00
  0.00000000E+00  0.00000000E+00  0.00000000E+00  0.00000000E+00  0.00000000E+00
  0.00000000E+00  0.00000000E+00  0.00000000E+00  0.00000000E+00  0.00000000E+00
  0.00000000E+00  0.00000000E+00  0.00000000E+00  0.00000000E+00  0.00000000E+00
  0.00000000E+00  0.00000000E+00  0.00000000E+00  0.00000000E+00  0.00000000E+00
  0.00000000E+00  0.00000000E+00  0.00000000E+00  0.00000000E+00  0.00000000E+00
  0.00000000E+00  0.00000000E+00  0.00000000E+00  0.00000000E+00  0.00000000E+00
  0.00000000E+00  0.00000000E+00  0.00000000E+00  0.00000000E+00  0.00000000E+00
  0.00000000E+00  0.00000000E+00  0.00000000E+00  0.00000000E+00  0.00000000E+00
  0.00000000E+00  0.00000000E+00  0.00000000E+00  0.00000000E+00  0.00000000E+00
  0.00000000E+00  0.00000000E+00  0.00000000E+00  0.00000000E+00  0.00000000E+00
  0.00000000E+00  0.00000000E+00  0.00000000E+00  0.00000000E+00  0.00000000E+00
  0.00000000E+00  0.00000000E+00  0.00000000E+00  0.00000000E+00  0.00000000E+00
  1.90440000E+00  1.36430000E+00  4.84000000E-01  7.31600000E+00  9.24030000E+00
  8.78200000E+00  5.61290000E+00  4.83340000E+00  3.24870000E+00  2.71090000E+00
  2.01130000E+00  1.50282000E+01  1.46788000E+01  2.13546000E+01  2.38290000E+01
  1.98022000E+01  1.50468000E+01  1.09745000E+01  1.27219000E+01  1.51949000E+01
  1.57342000E+01  2.79222000E+01  1.61366000E+01  2.21252000E+01  2.45676000E+01
  1.96016000E+01  1.79818000E+01  1.72396000E+01  5.01500000E+00  1.92898000E+01
  2.34477000E+01  2.23993000E+01  2.96586000E+01  2.60081000E+01  2.15580000E+01
  1.69594000E+01  1.56479000E+01  1.86897000E+01  1.93530000E+01  3.43444000E+01
  1.98480000E+01  2.72140000E+01  3.02182000E+01  2.41099000E+01  2.21176000E+01
  2.12047000E+01  7.56690000E+00  2.37264000E+01  2.93879000E+01  3.01278000E+01
  4.19382000E+01  3.85203000E+01  3.39511000E+01  2.75774000E+01  1.56460000E+01
  1.04460000E+01  2.01830000E+01  4.99540000E+01  4.76430000E+01  1.18690000E+01
  1.08670000E+01  9.96100000E+00  9.18700000E+00  3.67980000E+01  1.34070000E+01
  9.38200000E+00  9.81700000E+00  8.90800000E+00  8.40700000E+00  8.05800000E+00
  1.29600000E+01  2.67920000E+01  2.49300000E+01  3.45630000E+01  1.11860000E+01
  1.09440000E+01  1.01270000E+01  9.40400000E+00  1.36660000E+01  7.81000000E+00
  6.93600000E+01  5.86630000E+01  4.79690000E+01  4.52740000E+01  3.92290000E+01
  3.30660000E+01  0.00000000E+00  0.00000000E+00  0.00000000E+00  0.00000000E+00
  0.00000000E+00  0.00000000E+00  0.00000000E+00  0.00000000E+00  0.00000000E+00
  0.00000000E+00  0.00000000E+00  0.00000000E+00  0.00000000E+00  0.00000000E+00
  0.00000000E+00  0.00000000E+00  0.00000000E+00  0.00000000E+00  0.00000000E+00
  0.00000000E+00  0.00000000E+00  0.00000000E+00  0.00000000E+00  0.00000000E+00
  0.00000000E+00  0.00000000E+00  0.00000000E+00  0.00000000E+00  0.00000000E+00
  0.00000000E+00  0.00000000E+00  0.00000000E+00  0.00000000E+00  0.00000000E+00
  0.00000000E+00  0.00000000E+00  0.00000000E+00  0.00000000E+00  0.00000000E+00
  0.00000000E+00  0.00000000E+00  0.00000000E+00  0.00000000E+00  0.00000000E+00
  0.00000000E+00  0.00000000E+00  0.00000000E+00  0.00000000E+00  0.00000000E+00
  0.00000000E+00  0.00000000E+00  0.00000000E+00  0.00000000E+00  0.00000000E+00
  0.00000000E+00  0.00000000E+00  0.00000000E+00  0.00000000E+00  0.00000000E+00
  0.00000000E+00  0.00000000E+00  0.00000000E+00  0.00000000E+00  0.00000000E+00
  0.00000000E+00  0.00000000E+00  0.00000000E+00  0.00000000E+00  0.00000000E+00
  0.00000000E+00  0.00000000E+00  0.00000000E+00  0.00000000E+00  0.00000000E+00
  0.00000000E+00  0.00000000E+00  0.00000000E+00  0.00000000E+00  0.00000000E+00
  0.00000000E+00  0.00000000E+00  0.00000000E+00  0.00000000E+00  0.00000000E+00
  0.00000000E+00  0.00000000E+00  0.00000000E+00  0.00000000E+00  0.00000000E+00
  0.00000000E+00  0.00000000E+00  0.00000000E+00  0.00000000E+00  0.00000000E+00
  0.00000000E+00  0.00000000E+00  0.00000000E+00  0.00000000E+00  0.00000000E+00
  0.00000000E+00  0.00000000E+00  0.00000000E+00  0.00000000E+00  0.00000000E+00
  0.00000000E+00  0.00000000E+00  0.00000000E+00  0.00000000E+00  0.00000000E+00
  0.00000000E+00  0.00000000E+00  0.00000000E+00  0.00000000E+00  0.00000000E+00
  0.00000000E+00  0.00000000E+00  0.00000000E+00  0.00000000E+00  0.00000000E+00
  0.00000000E+00  0.00000000E+00  0.00000000E+00  0.00000000E+00  0.00000000E+00
  0.00000000E+00  0.00000000E+00  0.00000000E+00  0.00000000E+00  0.00000000E+00
  0.00000000E+00  0.00000000E+00  0.00000000E+00  0.00000000E+00  0.00000000E+00
  0.00000000E+00  0.00000000E+00  0.00000000E+00  0.00000000E+00  0.00000000E+00
  0.00000000E+00  0.00000000E+00  0.00000000E+00  0.00000000E+00  0.00000000E+00
  0.00000000E+00  0.00000000E+00  0.00000000E+00  0.00000000E+00  0.00000000E+00
  0.00000000E+00  0.00000000E+00  0.00000000E+00  0.00000000E+00  0.00000000E+00
  0.00000000E+00  0.00000000E+00  0.00000000E+00  0.00000000E+00  0.00000000E+00
  0.00000000E+00  0.00000000E+00  0.00000000E+00  0.00000000E+00  0.00000000E+00
  0.00000000E+00  0.00000000E+00  0.00000000E+00  0.00000000E+00  0.00000000E+00
  0.00000000E+00  0.00000000E+00  0.00000000E+00  0.00000000E+00  0.00000000E+00
  0.00000000E+00  0.00000000E+00  0.00000000E+00  0.00000000E+00  0.00000000E+00
  0.00000000E+00  0.00000000E+00  0.00000000E+00  0.00000000E+00  0.00000000E+00
  0.00000000E+00  0.00000000E+00  0.00000000E+00  0.00000000E+00  0.00000000E+00
  0.00000000E+00  0.00000000E+00  0.00000000E+00  0.00000000E+00  0.00000000E+00
  0.00000000E+00  0.00000000E+00  0.00000000E+00  0.00000000E+00  0.00000000E+00
  0.00000000E+00  0.00000000E+00  0.00000000E+00  0.00000000E+00  0.00000000E+00
  0.00000000E+00  0.00000000E+00  0.00000000E+00  0.00000000E+00  0.00000000E+00
  0.00000000E+00  0.00000000E+00  0.00000000E+00  0.00000000E+00  0.00000000E+00
  0.00000000E+00  0.00000000E+00  0.00000000E+00  0.00000000E+00  0.00000000E+00
  0.00000000E+00  0.00000000E+00  0.00000000E+00  0.00000000E+00  0.00000000E+00
  0.00000000E+00  0.00000000E+00  0.00000000E+00  0.00000000E+00  0.00000000E+00
  0.00000000E+00  0.00000000E+00  0.00000000E+00  0.00000000E+00  0.00000000E+00
  0.00000000E+00  0.00000000E+00  0.00000000E+00  0.00000000E+00  0.00000000E+00
  0.00000000E+00  0.00000000E+00  0.00000000E+00  0.00000000E+00  0.00000000E+00
  0.00000000E+00  0.00000000E+00  0.00000000E+00  0.00000000E+00  0.00000000E+00
  0.00000000E+00  0.00000000E+00  0.00000000E+00  0.00000000E+00  0.00000000E+00
  0.00000000E+00  0.00000000E+00  0.00000000E+00  0.00000000E+00  0.00000000E+00
  0.00000000E+00  0.00000000E+00  0.00000000E+00  0.00000000E+00  0.00000000E+00
  0.00000000E+00  0.00000000E+00  0.00000000E+00  0.00000000E+00  0.00000000E+00
  0.00000000E+00  0.00000000E+00  0.00000000E+00  0.00000000E+00  0.00000000E+00
  0.00000000E+00  0.00000000E+00  0.00000000E+00  0.00000000E+00  0.00000000E+00
  0.00000000E+00  0.00000000E+00  0.00000000E+00  0.00000000E+00  0.00000000E+00
  0.00000000E+00  0.00000000E+00  0.00000000E+00  0.00000000E+00  0.00000000E+00
  0.00000000E+00  0.00000000E+00  0.00000000E+00  0.00000000E+00  0.00000000E+00
  0.00000000E+00  0.00000000E+00  0.00000000E+00  0.00000000E+00  0.00000000E+00
  0.00000000E+00  0.00000000E+00  0.00000000E+00  0.00000000E+00  0.00000000E+00
  0.00000000E+00  0.00000000E+00  0.00000000E+00  0.00000000E+00  0.00000000E+00
  0.00000000E+00  0.00000000E+00  0.00000000E+00  0.00000000E+00  0.00000000E+00
  0.00000000E+00  0.00000000E+00  0.00000000E+00  0.00000000E+00  0.00000000E+00
  0.00000000E+00  0.00000000E+00  0.00000000E+00  0.00000000E+00  0.00000000E+00
  0.00000000E+00  0.00000000E+00  0.00000000E+00  0.00000000E+00  0.00000000E+00
  0.00000000E+00  0.00000000E+00  0.00000000E+00  0.00000000E+00  0.00000000E+00
  0.00000000E+00  0.00000000E+00  0.00000000E+00  0.00000000E+00  0.00000000E+00
  0.00000000E+00  0.00000000E+00  0.00000000E+00  0.00000000E+00  0.00000000E+00
  0.00000000E+00  0.00000000E+00  0.00000000E+00  0.00000000E+00  0.00000000E+00
  0.00000000E+00  0.00000000E+00  0.00000000E+00  0.00000000E+00  0.00000000E+00
  0.00000000E+00  0.00000000E+00  0.00000000E+00  0.00000000E+00  0.00000000E+00
  0.00000000E+00  0.00000000E+00  0.00000000E+00  0.00000000E+00  0.00000000E+00
  0.00000000E+00  0.00000000E+00  0.00000000E+00  0.00000000E+00  0.00000000E+00
  0.00000000E+00  0.00000000E+00  0.00000000E+00  0.00000000E+00  0.00000000E+00
  0.00000000E+00  0.00000000E+00  0.00000000E+00  0.00000000E+00  0.00000000E+00
  0.00000000E+00  0.00000000E+00  0.00000000E+00  0.00000000E+00  0.00000000E+00
  0.00000000E+00  0.00000000E+00  0.00000000E+00  0.00000000E+00  0.00000000E+00
  0.00000000E+00  0.00000000E+00  0.00000000E+00  0.00000000E+00  0.00000000E+00
  0.00000000E+00  0.00000000E+00  0.00000000E+00  0.00000000E+00  0.00000000E+00
  0.00000000E+00  0.00000000E+00  0.00000000E+00  0.00000000E+00  0.00000000E+00
  0.00000000E+00  0.00000000E+00  0.00000000E+00  0.00000000E+00  0.00000000E+00
  0.00000000E+00  0.00000000E+00  0.00000000E+00  0.00000000E+00  0.00000000E+00
  0.00000000E+00  0.00000000E+00  0.00000000E+00  0.00000000E+00  0.00000000E+00
  0.00000000E+00  0.00000000E+00  0.00000000E+00  0.00000000E+00  0.00000000E+00
  0.00000000E+00  0.00000000E+00  0.00000000E+00  0.00000000E+00  0.00000000E+00
  0.00000000E+00  0.00000000E+00  0.00000000E+00  0.00000000E+00  0.00000000E+00
  0.00000000E+00  0.00000000E+00  0.00000000E+00  0.00000000E+00  0.00000000E+00
  0.00000000E+00  0.00000000E+00  0.00000000E+00  0.00000000E+00  0.00000000E+00
  0.00000000E+00  0.00000000E+00  0.00000000E+00  0.00000000E+00  0.00000000E+00
  0.00000000E+00  0.00000000E+00  0.00000000E+00  0.00000000E+00  0.00000000E+00
  0.00000000E+00  0.00000000E+00  0.00000000E+00  0.00000000E+00  0.00000000E+00
  0.00000000E+00  0.00000000E+00  0.00000000E+00  0.00000000E+00  0.00000000E+00
  0.00000000E+00  0.00000000E+00  0.00000000E+00  0.00000000E+00  0.00000000E+00
  0.00000000E+00  0.00000000E+00  0.00000000E+00  0.00000000E+00  0.00000000E+00
  0.00000000E+00  0.00000000E+00  0.00000000E+00  0.00000000E+00  0.00000000E+00
  0.00000000E+00  0.00000000E+00  0.00000000E+00  0.00000000E+00  0.00000000E+00
  0.00000000E+00  0.00000000E+00  0.00000000E+00  0.00000000E+00  0.00000000E+00
  0.00000000E+00  0.00000000E+00  0.00000000E+00  0.00000000E+00  0.00000000E+00
  0.00000000E+00  0.00000000E+00  0.00000000E+00  0.00000000E+00  0.00000000E+00
  0.00000000E+00  0.00000000E+00  0.00000000E+00  0.00000000E+00  0.00000000E+00
  0.00000000E+00  0.00000000E+00  0.00000000E+00  0.00000000E+00  0.00000000E+00
  0.00000000E+00  0.00000000E+00  0.00000000E+00  0.00000000E+00  0.00000000E+00
  0.00000000E+00  0.00000000E+00  0.00000000E+00  0.00000000E+00  0.00000000E+00
  0.00000000E+00  0.00000000E+00  0.00000000E+00  0.00000000E+00  0.00000000E+00
  0.00000000E+00  0.00000000E+00  0.00000000E+00  0.00000000E+00  0.00000000E+00
  0.00000000E+00  0.00000000E+00  0.00000000E+00  0.00000000E+00  0.00000000E+00
  0.00000000E+00  0.00000000E+00  0.00000000E+00  0.00000000E+00  0.00000000E+00
  0.00000000E+00  0.00000000E+00  0.00000000E+00  0.00000000E+00  0.00000000E+00
  0.00000000E+00  0.00000000E+00  0.00000000E+00  0.00000000E+00  0.00000000E+00
  0.00000000E+00  0.00000000E+00  0.00000000E+00  0.00000000E+00  0.00000000E+00
  0.00000000E+00  0.00000000E+00  0.00000000E+00  0.00000000E+00  0.00000000E+00
  0.00000000E+00  0.00000000E+00  0.00000000E+00  0.00000000E+00  0.00000000E+00
  0.00000000E+00  0.00000000E+00  0.00000000E+00  0.00000000E+00  0.00000000E+00
  0.00000000E+00  0.00000000E+00  0.00000000E+00  0.00000000E+00  0.00000000E+00
  0.00000000E+00  0.00000000E+00  0.00000000E+00  0.00000000E+00  0.00000000E+00
  0.00000000E+00  0.00000000E+00  0.00000000E+00  0.00000000E+00  0.00000000E+00
  0.00000000E+00  0.00000000E+00  0.00000000E+00  0.00000000E+00  0.00000000E+00
  0.00000000E+00  0.00000000E+00  0.00000000E+00  0.00000000E+00  0.00000000E+00
  0.00000000E+00  0.00000000E+00  0.00000000E+00  0.00000000E+00  0.00000000E+00
  0.00000000E+00  0.00000000E+00  0.00000000E+00  0.00000000E+00  0.00000000E+00
  0.00000000E+00  0.00000000E+00  0.00000000E+00  0.00000000E+00  0.00000000E+00
  0.00000000E+00  0.00000000E+00  0.00000000E+00  0.00000000E+00  0.00000000E+00
  0.00000000E+00  0.00000000E+00  0.00000000E+00  0.00000000E+00  0.00000000E+00
  0.00000000E+00  0.00000000E+00  0.00000000E+00  0.00000000E+00  0.00000000E+00
  0.00000000E+00  0.00000000E+00  0.00000000E+00  0.00000000E+00  0.00000000E+00
  0.00000000E+00  0.00000000E+00  0.00000000E+00  0.00000000E+00  0.00000000E+00
  0.00000000E+00  0.00000000E+00  0.00000000E+00  0.00000000E+00  0.00000000E+00
  0.00000000E+00  0.00000000E+00  0.00000000E+00  0.00000000E+00  0.00000000E+00
  0.00000000E+00  0.00000000E+00  0.00000000E+00  0.00000000E+00  0.00000000E+00
  0.00000000E+00  0.00000000E+00  0.00000000E+00  0.00000000E+00  0.00000000E+00
  0.00000000E+00  0.00000000E+00  0.00000000E+00  0.00000000E+00  0.00000000E+00
  0.00000000E+00  0.00000000E+00  0.00000000E+00  0.00000000E+00  0.00000000E+00
  0.00000000E+00  0.00000000E+00  0.00000000E+00  0.00000000E+00  0.00000000E+00
  0.00000000E+00  0.00000000E+00  0.00000000E+00  0.00000000E+00  0.00000000E+00
  0.00000000E+00  0.00000000E+00  0.00000000E+00  0.00000000E+00  0.00000000E+00
  0.00000000E+00  0.00000000E+00  0.00000000E+00  0.00000000E+00  0.00000000E+00
  0.00000000E+00  0.00000000E+00  0.00000000E+00  0.00000000E+00  0.00000000E+00
  0.00000000E+00  0.00000000E+00  0.00000000E+00  0.00000000E+00  0.00000000E+00
  0.00000000E+00  0.00000000E+00  0.00000000E+00  0.00000000E+00  0.00000000E+00
  0.00000000E+00  0.00000000E+00  0.00000000E+00  0.00000000E+00  0.00000000E+00
  0.00000000E+00  0.00000000E+00  0.00000000E+00  0.00000000E+00  0.00000000E+00
  0.00000000E+00  0.00000000E+00  0.00000000E+00  0.00000000E+00  0.00000000E+00
  0.00000000E+00  0.00000000E+00  0.00000000E+00  0.00000000E+00  0.00000000E+00
  0.00000000E+00  0.00000000E+00  0.00000000E+00  0.00000000E+00  0.00000000E+00
  0.00000000E+00  0.00000000E+00  0.00000000E+00  0.00000000E+00  0.00000000E+00
  0.00000000E+00  0.00000000E+00  0.00000000E+00  0.00000000E+00  0.00000000E+00
  0.00000000E+00  0.00000000E+00  0.00000000E+00  0.00000000E+00  0.00000000E+00
  0.00000000E+00  0.00000000E+00  0.00000000E+00  0.00000000E+00  0.00000000E+00
  0.00000000E+00  0.00000000E+00  0.00000000E+00  0.00000000E+00  0.00000000E+00
  0.00000000E+00  0.00000000E+00  0.00000000E+00  0.00000000E+00  0.00000000E+00
  0.00000000E+00  0.00000000E+00  0.00000000E+00  0.00000000E+00  0.00000000E+00
  0.00000000E+00  0.00000000E+00  0.00000000E+00  0.00000000E+00  0.00000000E+00
  0.00000000E+00  0.00000000E+00  0.00000000E+00  0.00000000E+00  0.00000000E+00
  0.00000000E+00  0.00000000E+00  0.00000000E+00  0.00000000E+00  0.00000000E+00
  0.00000000E+00  0.00000000E+00  0.00000000E+00  0.00000000E+00  0.00000000E+00
  0.00000000E+00  0.00000000E+00  0.00000000E+00  0.00000000E+00  0.00000000E+00
  0.00000000E+00  0.00000000E+00  0.00000000E+00  0.00000000E+00  0.00000000E+00
  0.00000000E+00  0.00000000E+00  0.00000000E+00  0.00000000E+00  0.00000000E+00
  0.00000000E+00  0.00000000E+00  0.00000000E+00  0.00000000E+00  0.00000000E+00
  0.00000000E+00  0.00000000E+00  0.00000000E+00  0.00000000E+00  0.00000000E+00
  0.00000000E+00  0.00000000E+00  0.00000000E+00  0.00000000E+00  0.00000000E+00
  0.00000000E+00  0.00000000E+00  0.00000000E+00  0.00000000E+00  0.00000000E+00
  0.00000000E+00  0.00000000E+00  0.00000000E+00  0.00000000E+00  0.00000000E+00
  0.00000000E+00  0.00000000E+00  0.00000000E+00  0.00000000E+00  0.00000000E+00
  0.00000000E+00  0.00000000E+00  0.00000000E+00  0.00000000E+00  0.00000000E+00
  0.00000000E+00  0.00000000E+00  0.00000000E+00  0.00000000E+00  0.00000000E+00
  0.00000000E+00  0.00000000E+00  0.00000000E+00  0.00000000E+00  0.00000000E+00
  0.00000000E+00  0.00000000E+00  0.00000000E+00  0.00000000E+00  0.00000000E+00
  0.00000000E+00  0.00000000E+00  0.00000000E+00  0.00000000E+00  0.00000000E+00
  0.00000000E+00  0.00000000E+00  0.00000000E+00  0.00000000E+00  0.00000000E+00
  0.00000000E+00  0.00000000E+00  0.00000000E+00  0.00000000E+00  0.00000000E+00
  0.00000000E+00  0.00000000E+00  0.00000000E+00  0.00000000E+00  0.00000000E+00
  0.00000000E+00  0.00000000E+00  0.00000000E+00  0.00000000E+00  0.00000000E+00
  0.00000000E+00  0.00000000E+00  0.00000000E+00  0.00000000E+00  0.00000000E+00
  0.00000000E+00  0.00000000E+00  0.00000000E+00  0.00000000E+00  0.00000000E+00
  0.00000000E+00  0.00000000E+00  0.00000000E+00  0.00000000E+00  0.00000000E+00
  0.00000000E+00  0.00000000E+00  0.00000000E+00  0.00000000E+00  0.00000000E+00
  0.00000000E+00  0.00000000E+00  0.00000000E+00  0.00000000E+00  0.00000000E+00
  0.00000000E+00  0.00000000E+00  0.00000000E+00  0.00000000E+00  0.00000000E+00
  0.00000000E+00  0.00000000E+00  0.00000000E+00  0.00000000E+00  0.00000000E+00
  0.00000000E+00  0.00000000E+00  0.00000000E+00  0.00000000E+00  0.00000000E+00
  0.00000000E+00  0.00000000E+00  0.00000000E+00  0.00000000E+00  0.00000000E+00
  0.00000000E+00  0.00000000E+00  0.00000000E+00  0.00000000E+00  0.00000000E+00
  0.00000000E+00  0.00000000E+00  0.00000000E+00  0.00000000E+00  0.00000000E+00
  0.00000000E+00  0.00000000E+00  0.00000000E+00  0.00000000E+00  0.00000000E+00
  0.00000000E+00  0.00000000E+00  0.00000000E+00  0.00000000E+00  0.00000000E+00
  0.00000000E+00  0.00000000E+00  0.00000000E+00  0.00000000E+00  0.00000000E+00
  0.00000000E+00  0.00000000E+00  0.00000000E+00  0.00000000E+00  0.00000000E+00
  0.00000000E+00  0.00000000E+00  0.00000000E+00  0.00000000E+00  0.00000000E+00
  0.00000000E+00  0.00000000E+00  0.00000000E+00  0.00000000E+00  0.00000000E+00
  0.00000000E+00  0.00000000E+00  0.00000000E+00  0.00000000E+00  0.00000000E+00
  0.00000000E+00  0.00000000E+00  0.00000000E+00  0.00000000E+00  0.00000000E+00
  0.00000000E+00  0.00000000E+00  0.00000000E+00  0.00000000E+00  0.00000000E+00
  0.00000000E+00  0.00000000E+00  0.00000000E+00  0.00000000E+00  0.00000000E+00
  0.00000000E+00  0.00000000E+00  0.00000000E+00  0.00000000E+00  0.00000000E+00
  0.00000000E+00  0.00000000E+00  0.00000000E+00  0.00000000E+00  0.00000000E+00
  0.00000000E+00  0.00000000E+00  0.00000000E+00  0.00000000E+00  0.00000000E+00
  0.00000000E+00  0.00000000E+00  0.00000000E+00  0.00000000E+00  0.00000000E+00
  0.00000000E+00  0.00000000E+00  0.00000000E+00  0.00000000E+00  0.00000000E+00
  0.00000000E+00  0.00000000E+00  0.00000000E+00  0.00000000E+00  0.00000000E+00
  0.00000000E+00  0.00000000E+00  0.00000000E+00  0.00000000E+00  0.00000000E+00
  0.00000000E+00  0.00000000E+00  0.00000000E+00  0.00000000E+00  0.00000000E+00
  0.00000000E+00  0.00000000E+00  0.00000000E+00  0.00000000E+00  0.00000000E+00
  0.00000000E+00  0.00000000E+00  0.00000000E+00  0.00000000E+00  0.00000000E+00
  0.00000000E+00  0.00000000E+00  0.00000000E+00  0.00000000E+00  0.00000000E+00
  0.00000000E+00  0.00000000E+00  0.00000000E+00  0.00000000E+00  0.00000000E+00
  0.00000000E+00  0.00000000E+00  0.00000000E+00  0.00000000E+00  0.00000000E+00
  0.00000000E+00  0.00000000E+00  0.00000000E+00  0.00000000E+00  0.00000000E+00
  0.00000000E+00  0.00000000E+00  0.00000000E+00  0.00000000E+00  0.00000000E+00
  0.00000000E+00  0.00000000E+00  0.00000000E+00  0.00000000E+00  0.00000000E+00
  0.00000000E+00  0.00000000E+00  0.00000000E+00  0.00000000E+00  0.00000000E+00
  0.00000000E+00  0.00000000E+00  0.00000000E+00  0.00000000E+00  0.00000000E+00
  0.00000000E+00  0.00000000E+00  0.00000000E+00  0.00000000E+00  0.00000000E+00
  0.00000000E+00  0.00000000E+00  0.00000000E+00  0.00000000E+00  0.00000000E+00
  0.00000000E+00  0.00000000E+00  0.00000000E+00  0.00000000E+00  0.00000000E+00
  0.00000000E+00  0.00000000E+00  0.00000000E+00  0.00000000E+00  0.00000000E+00
  0.00000000E+00  0.00000000E+00  0.00000000E+00  0.00000000E+00  0.00000000E+00
  0.00000000E+00  0.00000000E+00  0.00000000E+00  0.00000000E+00  0.00000000E+00
  0.00000000E+00  0.00000000E+00  0.00000000E+00  0.00000000E+00  0.00000000E+00
  0.00000000E+00  0.00000000E+00  0.00000000E+00  0.00000000E+00  0.00000000E+00
  0.00000000E+00  0.00000000E+00  0.00000000E+00  0.00000000E+00  0.00000000E+00
  0.00000000E+00  0.00000000E+00  0.00000000E+00  0.00000000E+00  0.00000000E+00
  0.00000000E+00  0.00000000E+00  0.00000000E+00  0.00000000E+00  0.00000000E+00
  0.00000000E+00  0.00000000E+00  0.00000000E+00  0.00000000E+00  0.00000000E+00
  0.00000000E+00  0.00000000E+00  0.00000000E+00  0.00000000E+00  0.00000000E+00
  0.00000000E+00  0.00000000E+00  0.00000000E+00  0.00000000E+00  0.00000000E+00
  0.00000000E+00  0.00000000E+00  0.00000000E+00  0.00000000E+00  0.00000000E+00
  0.00000000E+00  0.00000000E+00  0.00000000E+00  0.00000000E+00  0.00000000E+00
  0.00000000E+00  0.00000000E+00  0.00000000E+00  0.00000000E+00  0.00000000E+00
  0.00000000E+00  0.00000000E+00  0.00000000E+00  0.00000000E+00  0.00000000E+00
  0.00000000E+00  0.00000000E+00  0.00000000E+00  0.00000000E+00  0.00000000E+00
  0.00000000E+00  0.00000000E+00  0.00000000E+00  0.00000000E+00  0.00000000E+00
  0.00000000E+00  0.00000000E+00  0.00000000E+00  0.00000000E+00  0.00000000E+00
  0.00000000E+00  0.00000000E+00  0.00000000E+00  0.00000000E+00  0.00000000E+00
  0.00000000E+00  0.00000000E+00  0.00000000E+00  0.00000000E+00  0.00000000E+00
  0.00000000E+00  0.00000000E+00  0.00000000E+00  0.00000000E+00  0.00000000E+00
  0.00000000E+00  0.00000000E+00  0.00000000E+00  0.00000000E+00  0.00000000E+00
  0.00000000E+00  0.00000000E+00  0.00000000E+00  0.00000000E+00  0.00000000E+00
  0.00000000E+00  0.00000000E+00  0.00000000E+00  0.00000000E+00  0.00000000E+00
  0.00000000E+00  0.00000000E+00  0.00000000E+00  0.00000000E+00  0.00000000E+00
  0.00000000E+00  0.00000000E+00  0.00000000E+00  0.00000000E+00  0.00000000E+00
  0.00000000E+00  0.00000000E+00  0.00000000E+00  0.00000000E+00  0.00000000E+00
  0.00000000E+00  0.00000000E+00  0.00000000E+00  0.00000000E+00  0.00000000E+00
  0.00000000E+00  0.00000000E+00  0.00000000E+00  0.00000000E+00  0.00000000E+00
  0.00000000E+00  0.00000000E+00  0.00000000E+00  0.00000000E+00  0.00000000E+00
  0.00000000E+00  0.00000000E+00  0.00000000E+00  0.00000000E+00  0.00000000E+00
  0.00000000E+00  0.00000000E+00  0.00000000E+00  0.00000000E+00  0.00000000E+00
  0.00000000E+00  0.00000000E+00  0.00000000E+00  0.00000000E+00  0.00000000E+00
  0.00000000E+00  0.00000000E+00  0.00000000E+00  0.00000000E+00  0.00000000E+00
  0.00000000E+00  0.00000000E+00  0.00000000E+00  0.00000000E+00  0.00000000E+00
  0.00000000E+00  0.00000000E+00  0.00000000E+00  0.00000000E+00  0.00000000E+00
  0.00000000E+00  0.00000000E+00  0.00000000E+00  0.00000000E+00  0.00000000E+00
  0.00000000E+00  0.00000000E+00  0.00000000E+00  0.00000000E+00  0.00000000E+00
  0.00000000E+00  0.00000000E+00  0.00000000E+00  0.00000000E+00  0.00000000E+00
  0.00000000E+00  0.00000000E+00  0.00000000E+00  0.00000000E+00  0.00000000E+00
  0.00000000E+00  0.00000000E+00  0.00000000E+00  0.00000000E+00  0.00000000E+00
  0.00000000E+00  0.00000000E+00  0.00000000E+00  0.00000000E+00  0.00000000E+00
  0.00000000E+00  0.00000000E+00  0.00000000E+00  0.00000000E+00  0.00000000E+00
  0.00000000E+00  0.00000000E+00  0.00000000E+00  0.00000000E+00  0.00000000E+00
  0.00000000E+00  0.00000000E+00  0.00000000E+00  0.00000000E+00  0.00000000E+00
  0.00000000E+00  0.00000000E+00  0.00000000E+00  0.00000000E+00  0.00000000E+00
  0.00000000E+00  0.00000000E+00  0.00000000E+00  0.00000000E+00  0.00000000E+00
  0.00000000E+00  0.00000000E+00  0.00000000E+00  0.00000000E+00  0.00000000E+00
  0.00000000E+00  0.00000000E+00  0.00000000E+00  0.00000000E+00  0.00000000E+00
  0.00000000E+00  0.00000000E+00  0.00000000E+00  0.00000000E+00  0.00000000E+00
  0.00000000E+00  0.00000000E+00  0.00000000E+00  0.00000000E+00  0.00000000E+00
  0.00000000E+00  0.00000000E+00  0.00000000E+00  0.00000000E+00  0.00000000E+00
  0.00000000E+00  0.00000000E+00  0.00000000E+00  0.00000000E+00  0.00000000E+00
  0.00000000E+00  0.00000000E+00  0.00000000E+00  0.00000000E+00  0.00000000E+00
  0.00000000E+00  0.00000000E+00  0.00000000E+00  0.00000000E+00  0.00000000E+00
  0.00000000E+00  0.00000000E+00  0.00000000E+00  0.00000000E+00  0.00000000E+00
  0.00000000E+00  0.00000000E+00  0.00000000E+00  0.00000000E+00  0.00000000E+00
  0.00000000E+00  0.00000000E+00  0.00000000E+00  0.00000000E+00  0.00000000E+00
  0.00000000E+00  0.00000000E+00  0.00000000E+00  0.00000000E+00  0.00000000E+00
  0.00000000E+00  0.00000000E+00  0.00000000E+00  0.00000000E+00  0.00000000E+00
  0.00000000E+00  0.00000000E+00  0.00000000E+00  0.00000000E+00  0.00000000E+00
  0.00000000E+00  0.00000000E+00  0.00000000E+00  0.00000000E+00  0.00000000E+00
  0.00000000E+00  0.00000000E+00  0.00000000E+00  0.00000000E+00  0.00000000E+00
  0.00000000E+00  0.00000000E+00  0.00000000E+00  0.00000000E+00  0.00000000E+00
  0.00000000E+00  0.00000000E+00  0.00000000E+00  0.00000000E+00  0.00000000E+00
  0.00000000E+00  0.00000000E+00  0.00000000E+00  0.00000000E+00  0.00000000E+00
  0.00000000E+00  0.00000000E+00  0.00000000E+00  0.00000000E+00  0.00000000E+00
  0.00000000E+00  0.00000000E+00  0.00000000E+00  0.00000000E+00  0.00000000E+00
  0.00000000E+00  0.00000000E+00  0.00000000E+00  0.00000000E+00  0.00000000E+00
  0.00000000E+00  0.00000000E+00  0.00000000E+00  0.00000000E+00  0.00000000E+00
  0.00000000E+00  0.00000000E+00  0.00000000E+00  0.00000000E+00  0.00000000E+00
  0.00000000E+00  0.00000000E+00  0.00000000E+00  0.00000000E+00  0.00000000E+00
  0.00000000E+00  0.00000000E+00  0.00000000E+00  0.00000000E+00  0.00000000E+00
  0.00000000E+00  0.00000000E+00  0.00000000E+00  0.00000000E+00  0.00000000E+00
  0.00000000E+00  0.00000000E+00  0.00000000E+00  0.00000000E+00  0.00000000E+00
  0.00000000E+00  0.00000000E+00  0.00000000E+00  0.00000000E+00  0.00000000E+00
  0.00000000E+00  0.00000000E+00  0.00000000E+00  0.00000000E+00  0.00000000E+00
  0.00000000E+00  0.00000000E+00  0.00000000E+00  0.00000000E+00  0.00000000E+00
  0.00000000E+00  0.00000000E+00  0.00000000E+00  0.00000000E+00  0.00000000E+00
  0.00000000E+00  0.00000000E+00  0.00000000E+00  0.00000000E+00  0.00000000E+00
  0.00000000E+00  0.00000000E+00  0.00000000E+00  0.00000000E+00  0.00000000E+00
  0.00000000E+00  0.00000000E+00  0.00000000E+00  0.00000000E+00  0.00000000E+00
  0.00000000E+00  0.00000000E+00  0.00000000E+00  0.00000000E+00  0.00000000E+00
  0.00000000E+00  0.00000000E+00  0.00000000E+00  0.00000000E+00  0.00000000E+00
  0.00000000E+00  0.00000000E+00  0.00000000E+00  0.00000000E+00  0.00000000E+00
  0.00000000E+00  0.00000000E+00  0.00000000E+00  0.00000000E+00  0.00000000E+00
  0.00000000E+00  0.00000000E+00  0.00000000E+00  0.00000000E+00  0.00000000E+00
  0.00000000E+00  0.00000000E+00  0.00000000E+00  0.00000000E+00  0.00000000E+00
  0.00000000E+00  0.00000000E+00  0.00000000E+00  0.00000000E+00  0.00000000E+00
  0.00000000E+00  0.00000000E+00  0.00000000E+00  0.00000000E+00  0.00000000E+00
  0.00000000E+00  0.00000000E+00  0.00000000E+00  0.00000000E+00  0.00000000E+00
  0.00000000E+00  0.00000000E+00  0.00000000E+00  0.00000000E+00  0.00000000E+00
  0.00000000E+00  0.00000000E+00  0.00000000E+00  0.00000000E+00  0.00000000E+00
  0.00000000E+00  0.00000000E+00  0.00000000E+00  0.00000000E+00  0.00000000E+00
  0.00000000E+00  0.00000000E+00  0.00000000E+00  0.00000000E+00  0.00000000E+00
  0.00000000E+00  0.00000000E+00  0.00000000E+00  0.00000000E+00  0.00000000E+00
  0.00000000E+00  0.00000000E+00  0.00000000E+00  0.00000000E+00  0.00000000E+00
  0.00000000E+00  0.00000000E+00  0.00000000E+00  0.00000000E+00  0.00000000E+00
  0.00000000E+00  0.00000000E+00  0.00000000E+00  0.00000000E+00  0.00000000E+00
  0.00000000E+00  0.00000000E+00  0.00000000E+00  0.00000000E+00  0.00000000E+00
  0.00000000E+00  0.00000000E+00  0.00000000E+00  0.00000000E+00  0.00000000E+00
  0.00000000E+00  0.00000000E+00  0.00000000E+00  0.00000000E+00  0.00000000E+00
  0.00000000E+00  0.00000000E+00  0.00000000E+00  0.00000000E+00  0.00000000E+00
  0.00000000E+00  0.00000000E+00  0.00000000E+00  0.00000000E+00  0.00000000E+00
  0.00000000E+00  0.00000000E+00  0.00000000E+00  0.00000000E+00  0.00000000E+00
  0.00000000E+00  0.00000000E+00  0.00000000E+00  0.00000000E+00  0.00000000E+00
  0.00000000E+00  0.00000000E+00  0.00000000E+00  0.00000000E+00  0.00000000E+00
  0.00000000E+00  0.00000000E+00  0.00000000E+00  0.00000000E+00  0.00000000E+00
  0.00000000E+00  0.00000000E+00  0.00000000E+00  0.00000000E+00  0.00000000E+00
  0.00000000E+00  0.00000000E+00  0.00000000E+00  0.00000000E+00  0.00000000E+00
  0.00000000E+00  0.00000000E+00  0.00000000E+00  0.00000000E+00  0.00000000E+00
  0.00000000E+00  0.00000000E+00  0.00000000E+00  0.00000000E+00  0.00000000E+00
  0.00000000E+00  0.00000000E+00  0.00000000E+00  0.00000000E+00  0.00000000E+00
  0.00000000E+00  0.00000000E+00  0.00000000E+00  0.00000000E+00  0.00000000E+00
  0.00000000E+00  0.00000000E+00  0.00000000E+00  0.00000000E+00  0.00000000E+00
  0.00000000E+00  0.00000000E+00  0.00000000E+00  0.00000000E+00  0.00000000E+00
  0.00000000E+00  0.00000000E+00  0.00000000E+00  0.00000000E+00  0.00000000E+00
  0.00000000E+00  0.00000000E+00  0.00000000E+00  0.00000000E+00  0.00000000E+00
  0.00000000E+00  0.00000000E+00  0.00000000E+00  0.00000000E+00  0.00000000E+00
  0.00000000E+00  0.00000000E+00  0.00000000E+00  0.00000000E+00  0.00000000E+00
  0.00000000E+00  0.00000000E+00  0.00000000E+00  0.00000000E+00  0.00000000E+00
  0.00000000E+00  0.00000000E+00  0.00000000E+00  0.00000000E+00  0.00000000E+00
  0.00000000E+00  0.00000000E+00  0.00000000E+00  0.00000000E+00  0.00000000E+00
  0.00000000E+00  0.00000000E+00  0.00000000E+00  0.00000000E+00  0.00000000E+00
  0.00000000E+00  0.00000000E+00  0.00000000E+00  0.00000000E+00  0.00000000E+00
  0.00000000E+00  0.00000000E+00  0.00000000E+00  0.00000000E+00  0.00000000E+00
  0.00000000E+00  0.00000000E+00  0.00000000E+00  0.00000000E+00  0.00000000E+00
  0.00000000E+00  0.00000000E+00  0.00000000E+00  0.00000000E+00  0.00000000E+00
  0.00000000E+00  0.00000000E+00  0.00000000E+00  0.00000000E+00  0.00000000E+00
  0.00000000E+00  0.00000000E+00  0.00000000E+00  0.00000000E+00  0.00000000E+00
  0.00000000E+00  0.00000000E+00  0.00000000E+00  0.00000000E+00  0.00000000E+00
  0.00000000E+00  0.00000000E+00  0.00000000E+00  0.00000000E+00  0.00000000E+00
  0.00000000E+00  0.00000000E+00  0.00000000E+00  0.00000000E+00  0.00000000E+00
  0.00000000E+00  0.00000000E+00  0.00000000E+00  0.00000000E+00  0.00000000E+00
  0.00000000E+00  0.00000000E+00  0.00000000E+00  0.00000000E+00  0.00000000E+00
  0.00000000E+00  0.00000000E+00  0.00000000E+00  0.00000000E+00  0.00000000E+00
  0.00000000E+00  0.00000000E+00  0.00000000E+00  0.00000000E+00  0.00000000E+00
  0.00000000E+00  0.00000000E+00  0.00000000E+00  0.00000000E+00  0.00000000E+00
  0.00000000E+00  0.00000000E+00  0.00000000E+00  0.00000000E+00  0.00000000E+00
  0.00000000E+00  0.00000000E+00  0.00000000E+00  0.00000000E+00  0.00000000E+00
  0.00000000E+00  0.00000000E+00  0.00000000E+00  0.00000000E+00  0.00000000E+00
  0.00000000E+00  0.00000000E+00  0.00000000E+00  0.00000000E+00  0.00000000E+00
  0.00000000E+00  0.00000000E+00  0.00000000E+00  0.00000000E+00  0.00000000E+00
  0.00000000E+00  0.00000000E+00  0.00000000E+00  0.00000000E+00  0.00000000E+00
  0.00000000E+00  0.00000000E+00  0.00000000E+00  0.00000000E+00  0.00000000E+00
  0.00000000E+00  0.00000000E+00  0.00000000E+00  0.00000000E+00  0.00000000E+00
  0.00000000E+00  0.00000000E+00  0.00000000E+00  0.00000000E+00  0.00000000E+00
  0.00000000E+00  0.00000000E+00  0.00000000E+00  0.00000000E+00  0.00000000E+00
  0.00000000E+00  0.00000000E+00  0.00000000E+00  0.00000000E+00  0.00000000E+00
  0.00000000E+00  0.00000000E+00  0.00000000E+00  0.00000000E+00  0.00000000E+00
  0.00000000E+00  0.00000000E+00  0.00000000E+00  0.00000000E+00  0.00000000E+00
  0.00000000E+00  0.00000000E+00  0.00000000E+00  0.00000000E+00  0.00000000E+00
  0.00000000E+00  0.00000000E+00  0.00000000E+00  0.00000000E+00  0.00000000E+00
  0.00000000E+00  0.00000000E+00  0.00000000E+00  0.00000000E+00  0.00000000E+00
  0.00000000E+00  0.00000000E+00  0.00000000E+00  0.00000000E+00  0.00000000E+00
  0.00000000E+00  0.00000000E+00  0.00000000E+00  0.00000000E+00  0.00000000E+00
  0.00000000E+00  0.00000000E+00  0.00000000E+00  0.00000000E+00  0.00000000E+00
  0.00000000E+00  0.00000000E+00  0.00000000E+00  0.00000000E+00  0.00000000E+00
  0.00000000E+00  0.00000000E+00  0.00000000E+00  0.00000000E+00  0.00000000E+00
  0.00000000E+00  0.00000000E+00  0.00000000E+00  0.00000000E+00  0.00000000E+00
  0.00000000E+00  0.00000000E+00  0.00000000E+00  0.00000000E+00  0.00000000E+00
  0.00000000E+00  0.00000000E+00  0.00000000E+00  0.00000000E+00  0.00000000E+00
  0.00000000E+00  0.00000000E+00  0.00000000E+00  0.00000000E+00  0.00000000E+00
  0.00000000E+00  0.00000000E+00  0.00000000E+00  0.00000000E+00  0.00000000E+00
  0.00000000E+00  0.00000000E+00  0.00000000E+00  0.00000000E+00  0.00000000E+00
  0.00000000E+00  0.00000000E+00  0.00000000E+00  0.00000000E+00  0.00000000E+00
  0.00000000E+00  0.00000000E+00  0.00000000E+00  0.00000000E+00  0.00000000E+00
Gaussian Version                           C   N=           2
ES64L-G16RevB.01        
