 Entering Gaussian System, Link 0=g16
 Input=NBO.com
 Output=NBO.log
 Initial command:
 /sw/apps/software/noarch/Gaussian/g16.B01/g16/l1.exe "/bigwork/nhcahsch/gauss_scrdir/Gau-2542212.inp" -scrdir="/bigwork/nhcahsch/gauss_scrdir/"
 Entering Link 1 = /sw/apps/software/noarch/Gaussian/g16.B01/g16/l1.exe PID=   2542223.
  
 Copyright (c) 1988-2017, Gaussian, Inc.  All Rights Reserved.
  
 This is part of the Gaussian(R) 16 program.  It is based on
 the Gaussian(R) 09 system (copyright 2009, Gaussian, Inc.),
 the Gaussian(R) 03 system (copyright 2003, Gaussian, Inc.),
 the Gaussian(R) 98 system (copyright 1998, Gaussian, Inc.),
 the Gaussian(R) 94 system (copyright 1995, Gaussian, Inc.),
 the Gaussian 92(TM) system (copyright 1992, Gaussian, Inc.),
 the Gaussian 90(TM) system (copyright 1990, Gaussian, Inc.),
 the Gaussian 88(TM) system (copyright 1988, Gaussian, Inc.),
 the Gaussian 86(TM) system (copyright 1986, Carnegie Mellon
 University), and the Gaussian 82(TM) system (copyright 1983,
 Carnegie Mellon University). Gaussian is a federally registered
 trademark of Gaussian, Inc.
  
 This software contains proprietary and confidential information,
 including trade secrets, belonging to Gaussian, Inc.
  
 This software is provided under written license and may be
 used, copied, transmitted, or stored only in accord with that
 written license.
  
 The following legend is applicable only to US Government
 contracts under FAR:
  
                    RESTRICTED RIGHTS LEGEND
  
 Use, reproduction and disclosure by the US Government is
 subject to restrictions as set forth in subparagraphs (a)
 and (c) of the Commercial Computer Software - Restricted
 Rights clause in FAR 52.227-19.
  
 Gaussian, Inc.
 340 Quinnipiac St., Bldg. 40, Wallingford CT 06492
  
  
 ---------------------------------------------------------------
 Warning -- This program may not be used in any manner that
 competes with the business of Gaussian, Inc. or will provide
 assistance to any competitor of Gaussian, Inc.  The licensee
 of this program is prohibited from giving any competitor of
 Gaussian, Inc. access to this program.  By using this program,
 the user acknowledges that Gaussian, Inc. is engaged in the
 business of creating and licensing software in the field of
 computational chemistry and represents and warrants to the
 licensee that it is not a competitor of Gaussian, Inc. and that
 it will not use this program in any manner prohibited above.
 ---------------------------------------------------------------
  

 Cite this work as:
 Gaussian 16, Revision B.01,
 M. J. Frisch, G. W. Trucks, H. B. Schlegel, G. E. Scuseria, 
 M. A. Robb, J. R. Cheeseman, G. Scalmani, V. Barone, 
 G. A. Petersson, H. Nakatsuji, X. Li, M. Caricato, A. V. Marenich, 
 J. Bloino, B. G. Janesko, R. Gomperts, B. Mennucci, H. P. Hratchian, 
 J. V. Ortiz, A. F. Izmaylov, J. L. Sonnenberg, D. Williams-Young, 
 F. Ding, F. Lipparini, F. Egidi, J. Goings, B. Peng, A. Petrone, 
 T. Henderson, D. Ranasinghe, V. G. Zakrzewski, J. Gao, N. Rega, 
 G. Zheng, W. Liang, M. Hada, M. Ehara, K. Toyota, R. Fukuda, 
 J. Hasegawa, M. Ishida, T. Nakajima, Y. Honda, O. Kitao, H. Nakai, 
 T. Vreven, K. Throssell, J. A. Montgomery, Jr., J. E. Peralta, 
 F. Ogliaro, M. J. Bearpark, J. J. Heyd, E. N. Brothers, K. N. Kudin, 
 V. N. Staroverov, T. A. Keith, R. Kobayashi, J. Normand, 
 K. Raghavachari, A. P. Rendell, J. C. Burant, S. S. Iyengar, 
 J. Tomasi, M. Cossi, J. M. Millam, M. Klene, C. Adamo, R. Cammi, 
 J. W. Ochterski, R. L. Martin, K. Morokuma, O. Farkas, 
 J. B. Foresman, and D. J. Fox, Gaussian, Inc., Wallingford CT, 2016.
 
 ******************************************
 Gaussian 16:  ES64L-G16RevB.01 20-Dec-2017
                30-Jun-2026 
 ******************************************
 %chk=NBO.chk
 -----------------------------------------------------
 #p B3LYP/6-311+G(d,p) OPT Pop=(Full,NBORead,SaveNBOs)
 -----------------------------------------------------
 1/18=20,19=15,26=3,38=1/1,3;
 2/9=110,12=2,17=6,18=5,40=1/2;
 3/5=4,6=6,7=111,11=2,25=1,30=1,71=1,74=-5/1,2,3;
 4//1;
 5/5=2,38=5/2;
 6/7=3,28=1,40=2,73=1/1,7;
 7//1,2,3,16;
 1/18=20,19=15,26=3/3(2);
 2/9=110/2;
 99//99;
 2/9=110/2;
 3/5=4,6=6,7=111,11=2,25=1,30=1,71=1,74=-5/1,2,3;
 4/5=5,16=3,69=1/1;
 5/5=2,38=5/2;
 7//1,2,3,16;
 1/18=20,19=15,26=3/3(-5);
 2/9=110/2;
 6/7=3,19=2,28=1,40=2,73=1/1,7;
 99/9=1/99;
 Leave Link    1 at Tue Jun 30 11:52:28 2026, MaxMem=           0 cpu:               0.0 elap:               0.1
 (Enter /sw/apps/software/noarch/Gaussian/g16.B01/g16/l101.exe)
 -------------------------------------------------
 Geometry optimization + ground-state NBO analysis
 -------------------------------------------------
 Symbolic Z-matrix:
 Charge =  0 Multiplicity = 1
 C                     0.        0.        0. 
 H                     0.        0.        1.089 
 H                     1.02672   0.       -0.363 
 H                    -0.51336   0.88917  -0.363 
 H                    -0.51336  -0.88917  -0.363 
 
 ITRead=  0  0  0  0  0
 MicOpt= -1 -1 -1 -1 -1
 NAtoms=      5 NQM=        5 NQMF=       0 NMMI=      0 NMMIF=      0
                NMic=       0 NMicF=      0.
                    Isotopes and Nuclear Properties:
 (Nuclear quadrupole moments (NQMom) in fm**2, nuclear magnetic moments (NMagM)
  in nuclear magnetons)

  Atom         1           2           3           4           5
 IAtWgt=          12           1           1           1           1
 AtmWgt=  12.0000000   1.0078250   1.0078250   1.0078250   1.0078250
 NucSpn=           0           1           1           1           1
 AtZEff=  -0.0000000  -0.0000000  -0.0000000  -0.0000000  -0.0000000
 NQMom=    0.0000000   0.0000000   0.0000000   0.0000000   0.0000000
 NMagM=    0.0000000   2.7928460   2.7928460   2.7928460   2.7928460
 AtZNuc=   6.0000000   1.0000000   1.0000000   1.0000000   1.0000000
 Leave Link  101 at Tue Jun 30 11:52:28 2026, MaxMem=   104857600 cpu:               0.2 elap:               0.2
 (Enter /sw/apps/software/noarch/Gaussian/g16.B01/g16/l103.exe)

 GradGradGradGradGradGradGradGradGradGradGradGradGradGradGradGradGradGrad
 Berny optimization.
 Initialization pass.
                           ----------------------------
                           !    Initial Parameters    !
                           ! (Angstroms and Degrees)  !
 --------------------------                            --------------------------
 ! Name  Definition              Value          Derivative Info.                !
 --------------------------------------------------------------------------------
 ! R1    R(1,2)                  1.089          estimate D2E/DX2                !
 ! R2    R(1,3)                  1.089          estimate D2E/DX2                !
 ! R3    R(1,4)                  1.089          estimate D2E/DX2                !
 ! R4    R(1,5)                  1.089          estimate D2E/DX2                !
 ! A1    A(2,1,3)              109.4712         estimate D2E/DX2                !
 ! A2    A(2,1,4)              109.4712         estimate D2E/DX2                !
 ! A3    A(2,1,5)              109.4712         estimate D2E/DX2                !
 ! A4    A(3,1,4)              109.4712         estimate D2E/DX2                !
 ! A5    A(3,1,5)              109.4712         estimate D2E/DX2                !
 ! A6    A(4,1,5)              109.4712         estimate D2E/DX2                !
 ! D1    D(2,1,4,3)            120.0            estimate D2E/DX2                !
 ! D2    D(2,1,5,3)           -120.0            estimate D2E/DX2                !
 ! D3    D(2,1,5,4)            120.0            estimate D2E/DX2                !
 ! D4    D(3,1,5,4)           -120.0            estimate D2E/DX2                !
 --------------------------------------------------------------------------------
 Trust Radius=3.00D-01 FncErr=1.00D-07 GrdErr=1.00D-06 EigMax=2.50D+02 EigMin=1.00D-04
 Number of steps in this run=     24 maximum allowed number of steps=    100.
 GradGradGradGradGradGradGradGradGradGradGradGradGradGradGradGradGradGrad

 Leave Link  103 at Tue Jun 30 11:52:28 2026, MaxMem=   104857600 cpu:               0.0 elap:               0.1
 (Enter /sw/apps/software/noarch/Gaussian/g16.B01/g16/l202.exe)
                          Input orientation:                          
 ---------------------------------------------------------------------
 Center     Atomic      Atomic             Coordinates (Angstroms)
 Number     Number       Type             X           Y           Z
 ---------------------------------------------------------------------
      1          6           0        0.000000    0.000000    0.000000
      2          1           0        0.000000    0.000000    1.089000
      3          1           0        1.026719    0.000000   -0.363000
      4          1           0       -0.513360    0.889165   -0.363000
      5          1           0       -0.513360   -0.889165   -0.363000
 ---------------------------------------------------------------------
                    Distance matrix (angstroms):
                    1          2          3          4          5
     1  C    0.000000
     2  H    1.089000   0.000000
     3  H    1.089000   1.778330   0.000000
     4  H    1.089000   1.778330   1.778330   0.000000
     5  H    1.089000   1.778330   1.778330   1.778330   0.000000
 Stoichiometry    CH4
 Framework group  T[O(C),4C3(H)]
 Deg. of freedom     1
 Full point group                 T       NOp  12
 Largest Abelian subgroup         D2      NOp   4
 Largest concise Abelian subgroup D2      NOp   4
                         Standard orientation:                         
 ---------------------------------------------------------------------
 Center     Atomic      Atomic             Coordinates (Angstroms)
 Number     Number       Type             X           Y           Z
 ---------------------------------------------------------------------
      1          6           0       -0.000000   -0.000000    0.000000
      2          1           0        0.628734   -0.628734    0.628734
      3          1           0       -0.628734    0.628734    0.628734
      4          1           0       -0.628734   -0.628734   -0.628734
      5          1           0        0.628734    0.628734   -0.628734
 ---------------------------------------------------------------------
 Rotational constants (GHZ):         158.5650850         158.5650850         158.5650850
 Leave Link  202 at Tue Jun 30 11:52:28 2026, MaxMem=   104857600 cpu:               0.0 elap:               0.0
 (Enter /sw/apps/software/noarch/Gaussian/g16.B01/g16/l301.exe)
 Standard basis: 6-311+G(d,p) (5D, 7F)
 Ernie: Thresh=  0.10000D-02 Tol=  0.10000D-05 Strict=F.
 There are    14 symmetry adapted cartesian basis functions of A   symmetry.
 There are    11 symmetry adapted cartesian basis functions of B1  symmetry.
 There are    11 symmetry adapted cartesian basis functions of B2  symmetry.
 There are    11 symmetry adapted cartesian basis functions of B3  symmetry.
 There are    13 symmetry adapted basis functions of A   symmetry.
 There are    11 symmetry adapted basis functions of B1  symmetry.
 There are    11 symmetry adapted basis functions of B2  symmetry.
 There are    11 symmetry adapted basis functions of B3  symmetry.
    46 basis functions,    68 primitive gaussians,    47 cartesian basis functions
     5 alpha electrons        5 beta electrons
       nuclear repulsion energy        13.4477266184 Hartrees.
 IExCor=  402 DFT=T Ex+Corr=B3LYP ExCW=0 ScaHFX=  0.200000
 ScaDFX=  0.800000  0.720000  1.000000  0.810000 ScalE2=  1.000000  1.000000
 IRadAn=      5 IRanWt=     -1 IRanGd=            0 ICorTp=0 IEmpDi=  4
 NAtoms=    5 NActive=    5 NUniq=    2 SFac= 4.00D+00 NAtFMM=   60 NAOKFM=F Big=F
 Integral buffers will be    131072 words long.
 Raffenetti 2 integral format.
 Two-electron integral symmetry is turned on.
 Leave Link  301 at Tue Jun 30 11:52:28 2026, MaxMem=   104857600 cpu:               0.1 elap:               0.1
 (Enter /sw/apps/software/noarch/Gaussian/g16.B01/g16/l302.exe)
 NPDir=0 NMtPBC=     1 NCelOv=     1 NCel=       1 NClECP=     1 NCelD=      1
         NCelK=      1 NCelE2=     1 NClLst=     1 CellRange=     0.0.
 One-electron integrals computed using PRISM.
 One-electron integral symmetry used in STVInt
 NBasis=    46 RedAO= T EigKep=  9.09D-03  NBF=    13    11    11    11
 NBsUse=    46 1.00D-06 EigRej= -1.00D+00 NBFU=    13    11    11    11
 Precomputing XC quadrature grid using
 IXCGrd= 4 IRadAn=           5 IRanWt=          -1 IRanGd=           0 AccXCQ= 0.00D+00.
 Generated NRdTot=       0 NPtTot=           0 NUsed=           0 NTot=          32
 NSgBfM=    47    47    47    47    47 MxSgAt=     5 MxSgA2=     5.
 Leave Link  302 at Tue Jun 30 11:52:28 2026, MaxMem=   104857600 cpu:               0.1 elap:               0.2
 (Enter /sw/apps/software/noarch/Gaussian/g16.B01/g16/l303.exe)
 DipDrv:  MaxL=1.
 Leave Link  303 at Tue Jun 30 11:52:28 2026, MaxMem=   104857600 cpu:               0.0 elap:               0.1
 (Enter /sw/apps/software/noarch/Gaussian/g16.B01/g16/l401.exe)
 ExpMin= 4.38D-02 ExpMax= 4.56D+03 ExpMxC= 6.82D+02 IAcc=3 IRadAn=         5 AccDes= 0.00D+00
 Harris functional with IExCor=  402 and IRadAn=       5 diagonalized for initial guess.
 HarFok:  IExCor=  402 AccDes= 0.00D+00 IRadAn=         5 IDoV= 1 UseB2=F ITyADJ=14
 ICtDFT=  3500011 ScaDFX=  1.000000  1.000000  1.000000  1.000000
 FoFCou: FMM=F IPFlag=           0 FMFlag=      100000 FMFlg1=           0
         NFxFlg=           0 DoJE=T BraDBF=F KetDBF=T FulRan=T
         wScrn=  0.000000 ICntrl=       500 IOpCl=  0 I1Cent=   200000004 NGrid=           0
         NMat0=    1 NMatS0=      1 NMatT0=    0 NMatD0=    1 NMtDS0=    0 NMtDT0=    0
 Petite list used in FoFCou.
 Harris En= -40.5805474210923    
 JPrj=0 DoOrth=F DoCkMO=F.
 Initial guess orbital symmetries:
       Occupied  (A) (A) (T) (T) (T)
       Virtual   (A) (T) (T) (T) (T) (T) (T) (A) (T) (T) (T) (T)
                 (T) (T) (A) (A) (E) (E) (T) (T) (T) (T) (T) (T)
                 (T) (T) (T) (A) (E) (E) (T) (T) (T) (T) (T) (T)
                 (A) (T) (T) (T) (A)
 The electronic state of the initial guess is 1-A.
 Leave Link  401 at Tue Jun 30 11:52:29 2026, MaxMem=   104857600 cpu:               0.3 elap:               0.3
 (Enter /sw/apps/software/noarch/Gaussian/g16.B01/g16/l502.exe)
 Keep R1 ints in memory in symmetry-blocked form, NReq=1457702.
 FoFCou: FMM=F IPFlag=           0 FMFlag=           0 FMFlg1=           0
         NFxFlg=           0 DoJE=F BraDBF=F KetDBF=F FulRan=T
         wScrn=  0.000000 ICntrl=       600 IOpCl=  0 I1Cent=           0 NGrid=           0
         NMat0=    1 NMatS0=   1081 NMatT0=    0 NMatD0=    1 NMtDS0=    0 NMtDT0=    0
 Petite list used in FoFCou.
 Closed shell SCF:
 Using DIIS extrapolation, IDIIS=  1040.
 NGot=   104857600 LenX=   104701655 LenY=   104699005
 Requested convergence on RMS density matrix=1.00D-08 within 128 cycles.
 Requested convergence on MAX density matrix=1.00D-06.
 Requested convergence on             energy=1.00D-06.
 No special actions if energy rises.

 Cycle   1  Pass 1  IDiag  1:
 E= -40.4353525528818    
 DIIS: error= 6.12D-02 at cycle   1 NSaved=   1.
 NSaved= 1 IEnMin= 1 EnMin= -40.4353525528818     IErMin= 1 ErrMin= 6.12D-02
 ErrMax= 6.12D-02  0.00D+00 EMaxC= 1.00D-01 BMatC= 9.99D-02 BMatP= 9.99D-02
 IDIUse=3 WtCom= 3.88D-01 WtEn= 6.12D-01
 Coeff-Com:  0.100D+01
 Coeff-En:   0.100D+01
 Coeff:      0.100D+01
 Gap=     0.300 Goal=   None    Shift=    0.000
 GapD=    0.300 DampG=1.000 DampE=0.500 DampFc=0.5000 IDamp=-1.
 Damping current iteration by 5.00D-01
 RMSDP=8.06D-03 MaxDP=1.50D-01              OVMax= 2.09D-01

 Cycle   2  Pass 1  IDiag  1:
 E= -40.4792927156008     Delta-E=       -0.043940162719 Rises=F Damp=T
 DIIS: error= 8.53D-03 at cycle   2 NSaved=   2.
 NSaved= 2 IEnMin= 2 EnMin= -40.4792927156008     IErMin= 2 ErrMin= 8.53D-03
 ErrMax= 8.53D-03  0.00D+00 EMaxC= 1.00D-01 BMatC= 2.17D-03 BMatP= 9.99D-02
 IDIUse=3 WtCom= 9.15D-01 WtEn= 8.53D-02
 Coeff-Com:  0.712D-01 0.929D+00
 Coeff-En:   0.147D+00 0.853D+00
 Coeff:      0.777D-01 0.922D+00
 Gap=     0.399 Goal=   None    Shift=    0.000
 RMSDP=8.09D-04 MaxDP=8.13D-03 DE=-4.39D-02 OVMax= 1.15D-01

 Cycle   3  Pass 1  IDiag  1:
 E= -40.5339013771360     Delta-E=       -0.054608661535 Rises=F Damp=F
 DIIS: error= 8.03D-04 at cycle   3 NSaved=   3.
 NSaved= 3 IEnMin= 3 EnMin= -40.5339013771360     IErMin= 3 ErrMin= 8.03D-04
 ErrMax= 8.03D-04  0.00D+00 EMaxC= 1.00D-01 BMatC= 1.40D-05 BMatP= 2.17D-03
 IDIUse=3 WtCom= 9.92D-01 WtEn= 8.03D-03
 Coeff-Com: -0.967D-02 0.811D-02 0.100D+01
 Coeff-En:   0.000D+00 0.000D+00 0.100D+01
 Coeff:     -0.960D-02 0.804D-02 0.100D+01
 Gap=     0.405 Goal=   None    Shift=    0.000
 RMSDP=7.50D-05 MaxDP=6.51D-04 DE=-5.46D-02 OVMax= 1.66D-03

 Cycle   4  Pass 1  IDiag  1:
 E= -40.5339179322090     Delta-E=       -0.000016555073 Rises=F Damp=F
 DIIS: error= 1.53D-04 at cycle   4 NSaved=   4.
 NSaved= 4 IEnMin= 4 EnMin= -40.5339179322090     IErMin= 4 ErrMin= 1.53D-04
 ErrMax= 1.53D-04  0.00D+00 EMaxC= 1.00D-01 BMatC= 5.08D-07 BMatP= 1.40D-05
 IDIUse=3 WtCom= 9.98D-01 WtEn= 1.53D-03
 Coeff-Com:  0.150D-02-0.235D-02 0.430D-01 0.958D+00
 Coeff-En:   0.000D+00 0.000D+00 0.000D+00 0.100D+01
 Coeff:      0.149D-02-0.234D-02 0.429D-01 0.958D+00
 Gap=     0.405 Goal=   None    Shift=    0.000
 RMSDP=9.04D-06 MaxDP=1.79D-04 DE=-1.66D-05 OVMax= 2.36D-04

 Cycle   5  Pass 1  IDiag  1:
 E= -40.5339184865066     Delta-E=       -0.000000554298 Rises=F Damp=F
 DIIS: error= 2.12D-06 at cycle   5 NSaved=   5.
 NSaved= 5 IEnMin= 5 EnMin= -40.5339184865066     IErMin= 5 ErrMin= 2.12D-06
 ErrMax= 2.12D-06  0.00D+00 EMaxC= 1.00D-01 BMatC= 1.37D-10 BMatP= 5.08D-07
 IDIUse=1 WtCom= 1.00D+00 WtEn= 0.00D+00
 Coeff-Com: -0.237D-04-0.302D-04-0.601D-03 0.259D-02 0.998D+00
 Coeff:     -0.237D-04-0.302D-04-0.601D-03 0.259D-02 0.998D+00
 Gap=     0.405 Goal=   None    Shift=    0.000
 RMSDP=3.02D-07 MaxDP=3.31D-06 DE=-5.54D-07 OVMax= 5.13D-06

 Cycle   6  Pass 1  IDiag  1:
 E= -40.5339184866760     Delta-E=       -0.000000000169 Rises=F Damp=F
 DIIS: error= 1.94D-07 at cycle   6 NSaved=   6.
 NSaved= 6 IEnMin= 6 EnMin= -40.5339184866760     IErMin= 6 ErrMin= 1.94D-07
 ErrMax= 1.94D-07  0.00D+00 EMaxC= 1.00D-01 BMatC= 1.20D-12 BMatP= 1.37D-10
 IDIUse=1 WtCom= 1.00D+00 WtEn= 0.00D+00
 Coeff-Com:  0.886D-06-0.494D-05-0.745D-04-0.179D-02-0.373D-01 0.104D+01
 Coeff:      0.886D-06-0.494D-05-0.745D-04-0.179D-02-0.373D-01 0.104D+01
 Gap=     0.405 Goal=   None    Shift=    0.000
 RMSDP=2.16D-08 MaxDP=4.43D-07 DE=-1.69D-10 OVMax= 3.78D-07

 Cycle   7  Pass 1  IDiag  1:
 E= -40.5339184866770     Delta-E=       -0.000000000001 Rises=F Damp=F
 DIIS: error= 1.34D-08 at cycle   7 NSaved=   7.
 NSaved= 7 IEnMin= 7 EnMin= -40.5339184866770     IErMin= 7 ErrMin= 1.34D-08
 ErrMax= 1.34D-08  0.00D+00 EMaxC= 1.00D-01 BMatC= 3.91D-15 BMatP= 1.20D-12
 IDIUse=1 WtCom= 1.00D+00 WtEn= 0.00D+00
 Coeff-Com:  0.541D-08 0.155D-06 0.106D-04-0.658D-04-0.243D-02-0.263D-02
 Coeff-Com:  0.101D+01
 Coeff:      0.541D-08 0.155D-06 0.106D-04-0.658D-04-0.243D-02-0.263D-02
 Coeff:      0.101D+01
 Gap=     0.405 Goal=   None    Shift=    0.000
 RMSDP=1.41D-09 MaxDP=1.76D-08 DE=-9.95D-13 OVMax= 2.39D-08

 SCF Done:  E(RB3LYP) =  -40.5339184867     A.U. after    7 cycles
            NFock=  7  Conv=0.14D-08     -V/T= 2.0061
 KE= 4.028876827453D+01 PE=-1.201518491266D+02 EE= 2.588143574691D+01
 Leave Link  502 at Tue Jun 30 11:52:30 2026, MaxMem=   104857600 cpu:               1.0 elap:               1.1
 (Enter /sw/apps/software/noarch/Gaussian/g16.B01/g16/l601.exe)
 Copying SCF densities to generalized density rwf, IOpCl= 0 IROHF=0.

 **********************************************************************

            Population analysis using the SCF Density.

 **********************************************************************

 Orbital symmetries:
       Occupied  (A) (A) (T) (T) (T)
       Virtual   (A) (T) (T) (T) (T) (T) (T) (A) (T) (T) (T) (T)
                 (T) (T) (A) (A) (E) (E) (T) (T) (T) (T) (T) (T)
                 (T) (T) (T) (A) (E) (E) (T) (T) (T) (T) (T) (T)
                 (A) (T) (T) (T) (A)
 The electronic state is 1-A.
 Alpha  occ. eigenvalues --  -10.15229  -0.69719  -0.39570  -0.39570  -0.39570
 Alpha virt. eigenvalues --    0.00963   0.05714   0.05714   0.05714   0.14632
 Alpha virt. eigenvalues --    0.14632   0.14632   0.21108   0.40043   0.40043
 Alpha virt. eigenvalues --    0.40043   0.59588   0.59588   0.59588   0.60534
 Alpha virt. eigenvalues --    0.82456   0.96445   0.96445   1.45558   1.45558
 Alpha virt. eigenvalues --    1.45558   1.53333   1.53333   1.53333   1.90274
 Alpha virt. eigenvalues --    1.90274   1.90274   2.27958   2.31660   2.31660
 Alpha virt. eigenvalues --    2.47687   2.47687   2.47687   2.54516   2.54516
 Alpha virt. eigenvalues --    2.54516   2.87479   3.79528   3.79528   3.79528
 Alpha virt. eigenvalues --   24.02491
     Molecular Orbital Coefficients:
                           1         2         3         4         5
                        (A)--O    (A)--O    (T)--O    (T)--O    (T)--O
     Eigenvalues --   -10.15229  -0.69719  -0.39570  -0.39570  -0.39570
   1 1   C  1S          0.56295  -0.10922   0.00000   0.00000   0.00000
   2        2S          0.46310  -0.16895   0.00000   0.00000   0.00000
   3        2PX         0.00000   0.00000   0.00000   0.00000   0.20555
   4        2PY         0.00000   0.00000   0.20555   0.00000   0.00000
   5        2PZ         0.00000   0.00000   0.00000   0.20555   0.00000
   6        3S          0.01972   0.43931   0.00000   0.00000   0.00000
   7        3PX         0.00000   0.00000   0.00000   0.00000   0.29085
   8        3PY         0.00000   0.00000   0.29085   0.00000   0.00000
   9        3PZ         0.00000   0.00000   0.00000   0.29085   0.00000
  10        4S         -0.00665   0.27492   0.00000   0.00000   0.00000
  11        4PX         0.00000   0.00000   0.00000   0.00000   0.19925
  12        4PY         0.00000   0.00000   0.19925   0.00000   0.00000
  13        4PZ         0.00000   0.00000   0.00000   0.19925   0.00000
  14        5S         -0.00393   0.01907   0.00000   0.00000   0.00000
  15        5PX         0.00000   0.00000   0.00000   0.00000   0.01362
  16        5PY         0.00000   0.00000   0.01362   0.00000   0.00000
  17        5PZ         0.00000   0.00000   0.00000   0.01362   0.00000
  18        6D 0        0.00000  -0.00000   0.00000   0.00000   0.00000
  19        6D+1        0.00000   0.00000  -0.02377   0.00000   0.00000
  20        6D-1        0.00000   0.00000   0.00000   0.00000  -0.02377
  21        6D+2        0.00000  -0.00000   0.00000   0.00000   0.00000
  22        6D-2        0.00000   0.00000   0.00000  -0.02377   0.00000
  23 2   H  1S          0.00032   0.08626  -0.10511   0.10511   0.10511
  24        2S         -0.00356   0.10220  -0.14661   0.14661   0.14661
  25        3S          0.00336   0.00317  -0.06848   0.06848   0.06848
  26        4PX         0.00120  -0.00934   0.00930  -0.00930   0.00385
  27        4PY        -0.00120   0.00934   0.00385   0.00930   0.00930
  28        4PZ         0.00120  -0.00934   0.00930   0.00385  -0.00930
  29 3   H  1S          0.00032   0.08626   0.10511   0.10511  -0.10511
  30        2S         -0.00356   0.10220   0.14661   0.14661  -0.14661
  31        3S          0.00336   0.00317   0.06848   0.06848  -0.06848
  32        4PX        -0.00120   0.00934   0.00930   0.00930   0.00385
  33        4PY         0.00120  -0.00934   0.00385  -0.00930   0.00930
  34        4PZ         0.00120  -0.00934  -0.00930   0.00385   0.00930
  35 4   H  1S          0.00032   0.08626  -0.10511  -0.10511  -0.10511
  36        2S         -0.00356   0.10220  -0.14661  -0.14661  -0.14661
  37        3S          0.00336   0.00317  -0.06848  -0.06848  -0.06848
  38        4PX        -0.00120   0.00934  -0.00930  -0.00930   0.00385
  39        4PY        -0.00120   0.00934   0.00385  -0.00930  -0.00930
  40        4PZ        -0.00120   0.00934  -0.00930   0.00385  -0.00930
  41 5   H  1S          0.00032   0.08626   0.10511  -0.10511   0.10511
  42        2S         -0.00356   0.10220   0.14661  -0.14661   0.14661
  43        3S          0.00336   0.00317   0.06848  -0.06848   0.06848
  44        4PX         0.00120  -0.00934  -0.00930   0.00930   0.00385
  45        4PY         0.00120  -0.00934   0.00385   0.00930  -0.00930
  46        4PZ        -0.00120   0.00934   0.00930   0.00385   0.00930
                           6         7         8         9        10
                        (A)--V    (T)--V    (T)--V    (T)--V    (T)--V
     Eigenvalues --     0.00963   0.05714   0.05714   0.05714   0.14632
   1 1   C  1S          0.04387   0.00000   0.00000   0.00000   0.00000
   2        2S          0.07221   0.00000   0.00000   0.00000   0.00000
   3        2PX         0.00000   0.00000   0.00000  -0.07306  -0.15521
   4        2PY         0.00000   0.00000  -0.07306   0.00000   0.00000
   5        2PZ         0.00000  -0.07306   0.00000   0.00000   0.00000
   6        3S         -0.22655   0.00000   0.00000   0.00000   0.00000
   7        3PX         0.00000   0.00000   0.00000  -0.12622  -0.13186
   8        3PY         0.00000   0.00000  -0.12622   0.00000   0.00000
   9        3PZ         0.00000  -0.12622   0.00000   0.00000   0.00000
  10        4S         -0.44345   0.00000   0.00000   0.00000   0.00000
  11        4PX         0.00000   0.00000   0.00000  -0.16674  -1.37582
  12        4PY         0.00000   0.00000  -0.16674   0.00000   0.00000
  13        4PZ         0.00000  -0.16674   0.00000   0.00000   0.00000
  14        5S          2.06407   0.00000   0.00000   0.00000   0.00000
  15        5PX         0.00000   0.00000   0.00000   1.37989  -0.71141
  16        5PY         0.00000   0.00000   1.37989   0.00000   0.00000
  17        5PZ         0.00000   1.37989   0.00000   0.00000   0.00000
  18        6D 0        0.00000   0.00000   0.00000   0.00000   0.00000
  19        6D+1        0.00000   0.00000   0.02481   0.00000   0.00000
  20        6D-1        0.00000   0.00000   0.00000   0.02481  -0.04050
  21        6D+2       -0.00000   0.00000   0.00000   0.00000   0.00000
  22        6D-2        0.00000   0.02481   0.00000   0.00000   0.00000
  23 2   H  1S         -0.00796  -0.02804   0.02804  -0.02804   0.04147
  24        2S          0.08257   0.01920  -0.01920   0.01920   0.12412
  25        3S         -0.33873  -0.34158   0.34158  -0.34158   1.51817
  26        4PX         0.00683  -0.00068   0.00068   0.00552   0.00074
  27        4PY        -0.00683   0.00068   0.00552   0.00068  -0.01545
  28        4PZ         0.00683   0.00552   0.00068  -0.00068   0.01545
  29 3   H  1S         -0.00796  -0.02804  -0.02804   0.02804  -0.04147
  30        2S          0.08257   0.01920   0.01920  -0.01920  -0.12412
  31        3S         -0.33873  -0.34158  -0.34158   0.34158  -1.51817
  32        4PX        -0.00683   0.00068   0.00068   0.00552   0.00074
  33        4PY         0.00683  -0.00068   0.00552   0.00068  -0.01545
  34        4PZ         0.00683   0.00552  -0.00068   0.00068  -0.01545
  35 4   H  1S         -0.00796   0.02804   0.02804   0.02804  -0.04147
  36        2S          0.08257  -0.01920  -0.01920  -0.01920  -0.12412
  37        3S         -0.33873   0.34158   0.34158   0.34158  -1.51817
  38        4PX        -0.00683  -0.00068  -0.00068   0.00552   0.00074
  39        4PY        -0.00683  -0.00068   0.00552  -0.00068   0.01545
  40        4PZ        -0.00683   0.00552  -0.00068  -0.00068   0.01545
  41 5   H  1S         -0.00796   0.02804  -0.02804  -0.02804   0.04147
  42        2S          0.08257  -0.01920   0.01920   0.01920   0.12412
  43        3S         -0.33873   0.34158  -0.34158  -0.34158   1.51817
  44        4PX         0.00683   0.00068  -0.00068   0.00552   0.00074
  45        4PY         0.00683   0.00068   0.00552  -0.00068   0.01545
  46        4PZ        -0.00683   0.00552   0.00068   0.00068  -0.01545
                          11        12        13        14        15
                        (T)--V    (T)--V    (A)--V    (T)--V    (T)--V
     Eigenvalues --     0.14632   0.14632   0.21108   0.40043   0.40043
   1 1   C  1S          0.00000   0.00000  -0.06403   0.00000   0.00000
   2        2S          0.00000   0.00000  -0.10048   0.00000   0.00000
   3        2PX         0.00000   0.00000   0.00000   0.00000   0.06009
   4        2PY         0.00000   0.15521   0.00000   0.06009   0.00000
   5        2PZ        -0.15521   0.00000   0.00000   0.00000   0.00000
   6        3S          0.00000   0.00000   0.17737   0.00000   0.00000
   7        3PX         0.00000   0.00000   0.00000   0.00000   0.04103
   8        3PY         0.00000   0.13186   0.00000   0.04103   0.00000
   9        3PZ        -0.13186   0.00000   0.00000   0.00000   0.00000
  10        4S          0.00000   0.00000   3.17646   0.00000   0.00000
  11        4PX         0.00000   0.00000   0.00000   0.00000  -1.20632
  12        4PY         0.00000   1.37582   0.00000  -1.20632   0.00000
  13        4PZ        -1.37582   0.00000   0.00000   0.00000   0.00000
  14        5S          0.00000   0.00000   3.72361   0.00000   0.00000
  15        5PX         0.00000   0.00000   0.00000   0.00000   1.20762
  16        5PY         0.00000   0.71141   0.00000   1.20762   0.00000
  17        5PZ        -0.71141   0.00000   0.00000   0.00000   0.00000
  18        6D 0        0.00000   0.00000  -0.00000   0.00000   0.00000
  19        6D+1        0.00000   0.04050   0.00000   0.02472   0.00000
  20        6D-1        0.00000   0.00000   0.00000   0.00000   0.02472
  21        6D+2        0.00000   0.00000  -0.00000   0.00000   0.00000
  22        6D-2       -0.04050   0.00000   0.00000   0.00000   0.00000
  23 2   H  1S          0.04147   0.04147  -0.03852  -0.04847   0.04847
  24        2S          0.12412   0.12412  -0.04613  -0.85658   0.85658
  25        3S          1.51817   1.51817  -2.03101   1.14870  -1.14870
  26        4PX         0.01545   0.01545  -0.00504   0.02243  -0.04020
  27        4PY        -0.01545  -0.00074   0.00504  -0.04020   0.02243
  28        4PZ         0.00074   0.01545  -0.00504   0.02243  -0.02243
  29 3   H  1S          0.04147  -0.04147  -0.03852   0.04847  -0.04847
  30        2S          0.12412  -0.12412  -0.04613   0.85658  -0.85658
  31        3S          1.51817  -1.51817  -2.03101  -1.14870   1.14870
  32        4PX        -0.01545   0.01545   0.00504   0.02243  -0.04020
  33        4PY         0.01545  -0.00074  -0.00504  -0.04020   0.02243
  34        4PZ         0.00074  -0.01545  -0.00504  -0.02243   0.02243
  35 4   H  1S         -0.04147   0.04147  -0.03852  -0.04847  -0.04847
  36        2S         -0.12412   0.12412  -0.04613  -0.85658  -0.85658
  37        3S         -1.51817   1.51817  -2.03101   1.14870   1.14870
  38        4PX         0.01545  -0.01545   0.00504  -0.02243  -0.04020
  39        4PY         0.01545  -0.00074   0.00504  -0.04020  -0.02243
  40        4PZ         0.00074  -0.01545   0.00504  -0.02243  -0.02243
  41 5   H  1S         -0.04147  -0.04147  -0.03852   0.04847   0.04847
  42        2S         -0.12412  -0.12412  -0.04613   0.85658   0.85658
  43        3S         -1.51817  -1.51817  -2.03101  -1.14870  -1.14870
  44        4PX        -0.01545  -0.01545  -0.00504  -0.02243  -0.04020
  45        4PY        -0.01545  -0.00074  -0.00504  -0.04020  -0.02243
  46        4PZ         0.00074   0.01545   0.00504   0.02243   0.02243
                          16        17        18        19        20
                        (T)--V    (T)--V    (T)--V    (T)--V    (A)--V
     Eigenvalues --     0.40043   0.59588   0.59588   0.59588   0.60534
   1 1   C  1S          0.00000   0.00000   0.00000   0.00000  -0.03353
   2        2S          0.00000   0.00000   0.00000   0.00000  -0.05832
   3        2PX         0.00000  -0.27877   0.00000   0.00000   0.00000
   4        2PY         0.00000   0.00000  -0.27877   0.00000   0.00000
   5        2PZ         0.06009   0.00000   0.00000  -0.27877   0.00000
   6        3S          0.00000   0.00000   0.00000   0.00000  -0.02590
   7        3PX         0.00000  -0.96317   0.00000   0.00000   0.00000
   8        3PY         0.00000   0.00000  -0.96317   0.00000   0.00000
   9        3PZ         0.04103   0.00000   0.00000  -0.96317   0.00000
  10        4S          0.00000   0.00000   0.00000   0.00000   2.19136
  11        4PX         0.00000   1.72585   0.00000   0.00000   0.00000
  12        4PY         0.00000   0.00000   1.72585   0.00000   0.00000
  13        4PZ        -1.20632   0.00000   0.00000   1.72585   0.00000
  14        5S          0.00000   0.00000   0.00000   0.00000  -1.47050
  15        5PX         0.00000   0.22843   0.00000   0.00000   0.00000
  16        5PY         0.00000   0.00000   0.22843   0.00000   0.00000
  17        5PZ         1.20762   0.00000   0.00000   0.22843   0.00000
  18        6D 0        0.00000   0.00000   0.00000   0.00000   0.00000
  19        6D+1        0.00000   0.00000  -0.07410   0.00000   0.00000
  20        6D-1        0.00000  -0.07410   0.00000   0.00000   0.00000
  21        6D+2        0.00000   0.00000   0.00000   0.00000  -0.00000
  22        6D-2        0.02472   0.00000   0.00000  -0.07410   0.00000
  23 2   H  1S          0.04847   0.06101  -0.06101   0.06101  -0.08118
  24        2S          0.85658   0.37334  -0.37334   0.37334  -1.30893
  25        3S         -1.14870  -1.32545   1.32545  -1.32545   0.75374
  26        4PX        -0.02243  -0.00934  -0.03385   0.03385   0.00611
  27        4PY         0.02243  -0.03385  -0.00934  -0.03385  -0.00611
  28        4PZ        -0.04020   0.03385  -0.03385  -0.00934   0.00611
  29 3   H  1S          0.04847  -0.06101   0.06101   0.06101  -0.08118
  30        2S          0.85658  -0.37334   0.37334   0.37334  -1.30893
  31        3S         -1.14870   1.32545  -1.32545  -1.32545   0.75374
  32        4PX         0.02243  -0.00934  -0.03385  -0.03385  -0.00611
  33        4PY        -0.02243  -0.03385  -0.00934   0.03385   0.00611
  34        4PZ        -0.04020  -0.03385   0.03385  -0.00934   0.00611
  35 4   H  1S         -0.04847  -0.06101  -0.06101  -0.06101  -0.08118
  36        2S         -0.85658  -0.37334  -0.37334  -0.37334  -1.30893
  37        3S          1.14870   1.32545   1.32545   1.32545   0.75374
  38        4PX        -0.02243  -0.00934   0.03385   0.03385  -0.00611
  39        4PY        -0.02243   0.03385  -0.00934   0.03385  -0.00611
  40        4PZ        -0.04020   0.03385   0.03385  -0.00934  -0.00611
  41 5   H  1S         -0.04847   0.06101   0.06101  -0.06101  -0.08118
  42        2S         -0.85658   0.37334   0.37334  -0.37334  -1.30893
  43        3S          1.14870  -1.32545  -1.32545   1.32545   0.75374
  44        4PX         0.02243  -0.00934   0.03385  -0.03385   0.00611
  45        4PY         0.02243   0.03385  -0.00934  -0.03385   0.00611
  46        4PZ        -0.04020  -0.03385  -0.03385  -0.00934  -0.00611
                          21        22        23        24        25
                        (A)--V    (E)--V    (E)--V    (T)--V    (T)--V
     Eigenvalues --     0.82456   0.96445   0.96445   1.45558   1.45558
   1 1   C  1S          0.12025   0.00000   0.00000   0.00000   0.00000
   2        2S          0.23689   0.00000   0.00000   0.00000   0.00000
   3        2PX         0.00000   0.00000   0.00000  -0.00000   0.00000
   4        2PY         0.00000   0.00000   0.00000   0.00000   0.00000
   5        2PZ         0.00000   0.00000   0.00000   0.00000  -0.00000
   6        3S         -2.13772  -0.00000  -0.00000   0.00000   0.00000
   7        3PX         0.00000   0.00000   0.00000   0.00000   0.00000
   8        3PY         0.00000   0.00000   0.00000   0.00000   0.00000
   9        3PZ         0.00000   0.00000   0.00000   0.00000   0.00000
  10        4S          6.65040   0.00000   0.00000   0.00000   0.00000
  11        4PX         0.00000   0.00000   0.00000  -0.00000   0.00000
  12        4PY         0.00000   0.00000   0.00000   0.00000   0.00000
  13        4PZ         0.00000   0.00000   0.00000   0.00000   0.00000
  14        5S          1.96408   0.00000   0.00000   0.00000   0.00000
  15        5PX         0.00000   0.00000   0.00000   0.00000   0.00000
  16        5PY         0.00000   0.00000   0.00000   0.00000   0.00000
  17        5PZ         0.00000   0.00000   0.00000   0.00000  -0.00000
  18        6D 0       -0.00000  -0.12103   0.45687   0.00000   0.00000
  19        6D+1        0.00000   0.00000   0.00000   0.00000   0.00000
  20        6D-1        0.00000   0.00000   0.00000   0.00000   0.00000
  21        6D+2       -0.00000   0.45687   0.12103   0.00000   0.00000
  22        6D-2        0.00000   0.00000   0.00000   0.00000  -0.00000
  23 2   H  1S          0.05752   0.00000   0.00000  -0.00000   0.00000
  24        2S         -0.38418  -0.00000   0.00000   0.00000  -0.00000
  25        3S         -1.80872  -0.00000  -0.00000   0.00000   0.00000
  26        4PX         0.08284   0.23976  -0.06498   0.00000   0.36777
  27        4PY        -0.08284   0.17615   0.17515   0.36777   0.36777
  28        4PZ         0.08284  -0.06361   0.24013   0.36777  -0.00000
  29 3   H  1S          0.05752   0.00000   0.00000   0.00000   0.00000
  30        2S         -0.38418  -0.00000   0.00000  -0.00000  -0.00000
  31        3S         -1.80872  -0.00000  -0.00000  -0.00000   0.00000
  32        4PX        -0.08284  -0.23976   0.06498   0.00000  -0.36777
  33        4PY         0.08284  -0.17615  -0.17515   0.36777  -0.36777
  34        4PZ         0.08284  -0.06361   0.24013  -0.36777  -0.00000
  35 4   H  1S          0.05752   0.00000   0.00000   0.00000  -0.00000
  36        2S         -0.38418  -0.00000   0.00000  -0.00000   0.00000
  37        3S         -1.80872  -0.00000  -0.00000  -0.00000  -0.00000
  38        4PX        -0.08284  -0.23976   0.06498   0.00000   0.36777
  39        4PY        -0.08284   0.17615   0.17515  -0.36777  -0.36777
  40        4PZ        -0.08284   0.06361  -0.24013   0.36777  -0.00000
  41 5   H  1S          0.05752   0.00000   0.00000  -0.00000  -0.00000
  42        2S         -0.38418  -0.00000   0.00000   0.00000   0.00000
  43        3S         -1.80872  -0.00000  -0.00000   0.00000  -0.00000
  44        4PX         0.08284   0.23976  -0.06498   0.00000  -0.36777
  45        4PY         0.08284  -0.17615  -0.17515  -0.36777   0.36777
  46        4PZ        -0.08284   0.06361  -0.24013  -0.36777  -0.00000
                          26        27        28        29        30
                        (T)--V    (T)--V    (T)--V    (T)--V    (T)--V
     Eigenvalues --     1.45558   1.53333   1.53333   1.53333   1.90274
   1 1   C  1S          0.00000   0.00000   0.00000   0.00000   0.00000
   2        2S          0.00000   0.00000   0.00000   0.00000   0.00000
   3        2PX         0.00000   0.09140   0.00000   0.00000   0.28112
   4        2PY         0.00000   0.00000   0.09140   0.00000   0.00000
   5        2PZ         0.00000   0.00000   0.00000   0.09140   0.00000
   6        3S          0.00000   0.00000   0.00000   0.00000   0.00000
   7        3PX         0.00000   0.03446   0.00000   0.00000  -0.47266
   8        3PY        -0.00000   0.00000   0.03446   0.00000   0.00000
   9        3PZ         0.00000   0.00000   0.00000   0.03446   0.00000
  10        4S          0.00000   0.00000   0.00000   0.00000   0.00000
  11        4PX         0.00000   1.10750   0.00000   0.00000   0.73086
  12        4PY         0.00000   0.00000   1.10750   0.00000   0.00000
  13        4PZ         0.00000   0.00000   0.00000   1.10750   0.00000
  14        5S          0.00000   0.00000   0.00000   0.00000   0.00000
  15        5PX         0.00000  -0.45950   0.00000   0.00000   0.18180
  16        5PY         0.00000   0.00000  -0.45950   0.00000   0.00000
  17        5PZ         0.00000   0.00000   0.00000  -0.45950   0.00000
  18        6D 0        0.00000   0.00000   0.00000   0.00000   0.00000
  19        6D+1       -0.00000   0.00000  -0.80768   0.00000   0.00000
  20        6D-1        0.00000  -0.80768   0.00000   0.00000   0.76425
  21        6D+2        0.00000   0.00000   0.00000   0.00000   0.00000
  22        6D-2        0.00000   0.00000   0.00000  -0.80768   0.00000
  23 2   H  1S         -0.00000   0.13907  -0.13907   0.13907  -0.24215
  24        2S          0.00000  -0.91196   0.91196  -0.91196   0.59773
  25        3S          0.00000   0.47024  -0.47024   0.47024  -0.65465
  26        4PX         0.36777  -0.25770  -0.03308   0.03308  -0.50712
  27        4PY        -0.00000  -0.03308  -0.25770  -0.03308  -0.13279
  28        4PZ        -0.36777   0.03308  -0.03308  -0.25770   0.13279
  29 3   H  1S          0.00000  -0.13907   0.13907   0.13907   0.24215
  30        2S         -0.00000   0.91196  -0.91196  -0.91196  -0.59773
  31        3S         -0.00000  -0.47024   0.47024   0.47024   0.65465
  32        4PX         0.36777  -0.25770  -0.03308  -0.03308  -0.50712
  33        4PY        -0.00000  -0.03308  -0.25770   0.03308  -0.13279
  34        4PZ         0.36777  -0.03308   0.03308  -0.25770  -0.13279
  35 4   H  1S         -0.00000  -0.13907  -0.13907  -0.13907   0.24215
  36        2S          0.00000   0.91196   0.91196   0.91196  -0.59773
  37        3S          0.00000  -0.47024  -0.47024  -0.47024   0.65465
  38        4PX        -0.36777  -0.25770   0.03308   0.03308  -0.50712
  39        4PY        -0.00000   0.03308  -0.25770   0.03308   0.13279
  40        4PZ         0.36777   0.03308   0.03308  -0.25770   0.13279
  41 5   H  1S          0.00000   0.13907   0.13907  -0.13907  -0.24215
  42        2S         -0.00000  -0.91196  -0.91196   0.91196   0.59773
  43        3S         -0.00000   0.47024   0.47024  -0.47024  -0.65465
  44        4PX        -0.36777  -0.25770   0.03308  -0.03308  -0.50712
  45        4PY        -0.00000   0.03308  -0.25770  -0.03308   0.13279
  46        4PZ        -0.36777  -0.03308  -0.03308  -0.25770  -0.13279
                          31        32        33        34        35
                        (T)--V    (T)--V    (A)--V    (E)--V    (E)--V
     Eigenvalues --     1.90274   1.90274   2.27958   2.31660   2.31660
   1 1   C  1S          0.00000   0.00000  -0.05627  -0.00000   0.00000
   2        2S          0.00000   0.00000  -0.10231  -0.00000   0.00000
   3        2PX         0.00000   0.00000   0.00000   0.00000   0.00000
   4        2PY         0.28112   0.00000   0.00000   0.00000   0.00000
   5        2PZ         0.00000   0.28112   0.00000   0.00000   0.00000
   6        3S          0.00000   0.00000   0.41928   0.00000  -0.00000
   7        3PX         0.00000   0.00000   0.00000   0.00000   0.00000
   8        3PY        -0.47266   0.00000   0.00000   0.00000   0.00000
   9        3PZ         0.00000  -0.47266   0.00000   0.00000   0.00000
  10        4S          0.00000   0.00000   0.51106  -0.00000   0.00000
  11        4PX         0.00000   0.00000   0.00000   0.00000   0.00000
  12        4PY         0.73086   0.00000   0.00000   0.00000   0.00000
  13        4PZ         0.00000   0.73086   0.00000   0.00000   0.00000
  14        5S          0.00000   0.00000   1.17000   0.00000   0.00000
  15        5PX         0.00000   0.00000   0.00000   0.00000   0.00000
  16        5PY         0.18180   0.00000   0.00000   0.00000   0.00000
  17        5PZ         0.00000   0.18180   0.00000   0.00000   0.00000
  18        6D 0        0.00000   0.00000   0.00000  -0.52530   1.13000
  19        6D+1        0.76425   0.00000   0.00000   0.00000   0.00000
  20        6D-1        0.00000   0.00000   0.00000   0.00000   0.00000
  21        6D+2        0.00000   0.00000  -0.00000   1.13000   0.52530
  22        6D-2        0.00000   0.76425   0.00000   0.00000   0.00000
  23 2   H  1S          0.24215  -0.24215  -0.68958  -0.00000   0.00000
  24        2S         -0.59773   0.59773   0.87523   0.00000  -0.00000
  25        3S          0.65465  -0.65465  -0.86747  -0.00000  -0.00000
  26        4PX        -0.13279   0.13279   0.19426  -0.46836   0.04153
  27        4PY        -0.50712  -0.13279  -0.19426  -0.27015  -0.38484
  28        4PZ        -0.13279  -0.50712   0.19426   0.19821  -0.42637
  29 3   H  1S         -0.24215  -0.24215  -0.68958  -0.00000   0.00000
  30        2S          0.59773   0.59773   0.87523   0.00000  -0.00000
  31        3S         -0.65465  -0.65465  -0.86747  -0.00000  -0.00000
  32        4PX        -0.13279  -0.13279  -0.19426   0.46836  -0.04153
  33        4PY        -0.50712   0.13279   0.19426   0.27015   0.38484
  34        4PZ         0.13279  -0.50712   0.19426   0.19821  -0.42637
  35 4   H  1S          0.24215   0.24215  -0.68958  -0.00000   0.00000
  36        2S         -0.59773  -0.59773   0.87523   0.00000  -0.00000
  37        3S          0.65465   0.65465  -0.86747  -0.00000  -0.00000
  38        4PX         0.13279   0.13279  -0.19426   0.46836  -0.04153
  39        4PY        -0.50712   0.13279  -0.19426  -0.27015  -0.38484
  40        4PZ         0.13279  -0.50712  -0.19426  -0.19821   0.42637
  41 5   H  1S         -0.24215   0.24215  -0.68958  -0.00000   0.00000
  42        2S          0.59773  -0.59773   0.87523   0.00000  -0.00000
  43        3S         -0.65465   0.65465  -0.86747  -0.00000  -0.00000
  44        4PX         0.13279  -0.13279   0.19426  -0.46836   0.04153
  45        4PY        -0.50712  -0.13279   0.19426   0.27015   0.38484
  46        4PZ        -0.13279  -0.50712  -0.19426  -0.19821   0.42637
                          36        37        38        39        40
                        (T)--V    (T)--V    (T)--V    (T)--V    (T)--V
     Eigenvalues --     2.47687   2.47687   2.47687   2.54516   2.54516
   1 1   C  1S          0.00000   0.00000   0.00000   0.00000   0.00000
   2        2S          0.00000   0.00000   0.00000   0.00000   0.00000
   3        2PX        -0.47172   0.00000   0.00000  -0.71561   0.00000
   4        2PY         0.00000   0.47172   0.00000   0.00000  -0.71561
   5        2PZ         0.00000   0.00000  -0.47172   0.00000   0.00000
   6        3S          0.00000   0.00000   0.00000   0.00000   0.00000
   7        3PX        -1.33147   0.00000   0.00000   0.99392   0.00000
   8        3PY         0.00000   1.33147   0.00000   0.00000   0.99392
   9        3PZ         0.00000   0.00000  -1.33147   0.00000   0.00000
  10        4S          0.00000   0.00000   0.00000   0.00000   0.00000
  11        4PX        -0.89161   0.00000   0.00000  -0.15572   0.00000
  12        4PY         0.00000   0.89161   0.00000   0.00000  -0.15572
  13        4PZ         0.00000   0.00000  -0.89161   0.00000   0.00000
  14        5S          0.00000   0.00000   0.00000   0.00000   0.00000
  15        5PX         0.34728   0.00000   0.00000  -0.29705   0.00000
  16        5PY         0.00000  -0.34728   0.00000   0.00000  -0.29705
  17        5PZ         0.00000   0.00000   0.34728   0.00000   0.00000
  18        6D 0        0.00000   0.00000   0.00000   0.00000   0.00000
  19        6D+1        0.00000  -0.92133   0.00000   0.00000   0.59351
  20        6D-1        0.92133   0.00000   0.00000   0.59351   0.00000
  21        6D+2        0.00000   0.00000   0.00000   0.00000   0.00000
  22        6D-2        0.00000   0.00000   0.92133   0.00000   0.00000
  23 2   H  1S         -0.30560  -0.30560  -0.30560   0.59127  -0.59127
  24        2S          1.56602   1.56602   1.56602  -0.86255   0.86255
  25        3S         -0.39163  -0.39163  -0.39163   0.72673  -0.72673
  26        4PX        -0.41854  -0.58560  -0.58560  -0.23400  -0.09997
  27        4PY         0.58560   0.41854   0.58560  -0.09997  -0.23400
  28        4PZ        -0.58560  -0.58560  -0.41854   0.09997  -0.09997
  29 3   H  1S          0.30560   0.30560  -0.30560  -0.59127   0.59127
  30        2S         -1.56602  -1.56602   1.56602   0.86255  -0.86255
  31        3S          0.39163   0.39163  -0.39163  -0.72673   0.72673
  32        4PX        -0.41854  -0.58560   0.58560  -0.23400  -0.09997
  33        4PY         0.58560   0.41854  -0.58560  -0.09997  -0.23400
  34        4PZ         0.58560   0.58560  -0.41854  -0.09997   0.09997
  35 4   H  1S          0.30560  -0.30560   0.30560  -0.59127  -0.59127
  36        2S         -1.56602   1.56602  -1.56602   0.86255   0.86255
  37        3S          0.39163  -0.39163   0.39163  -0.72673  -0.72673
  38        4PX        -0.41854   0.58560  -0.58560  -0.23400   0.09997
  39        4PY        -0.58560   0.41854  -0.58560   0.09997  -0.23400
  40        4PZ        -0.58560   0.58560  -0.41854   0.09997   0.09997
  41 5   H  1S         -0.30560   0.30560   0.30560   0.59127   0.59127
  42        2S          1.56602  -1.56602  -1.56602  -0.86255  -0.86255
  43        3S         -0.39163   0.39163   0.39163   0.72673   0.72673
  44        4PX        -0.41854   0.58560   0.58560  -0.23400   0.09997
  45        4PY        -0.58560   0.41854   0.58560   0.09997  -0.23400
  46        4PZ         0.58560  -0.58560  -0.41854  -0.09997  -0.09997
                          41        42        43        44        45
                        (T)--V    (A)--V    (T)--V    (T)--V    (T)--V
     Eigenvalues --     2.54516   2.87479   3.79528   3.79528   3.79528
   1 1   C  1S          0.00000  -0.09757   0.00000   0.00000   0.00000
   2        2S          0.00000  -0.25022   0.00000   0.00000   0.00000
   3        2PX         0.00000   0.00000  -1.16319   0.00000   0.00000
   4        2PY         0.00000   0.00000   0.00000  -1.16319   0.00000
   5        2PZ        -0.71561   0.00000   0.00000   0.00000  -1.16319
   6        3S          0.00000   1.88459   0.00000   0.00000   0.00000
   7        3PX         0.00000   0.00000   3.53245   0.00000   0.00000
   8        3PY         0.00000   0.00000   0.00000   3.53245   0.00000
   9        3PZ         0.99392   0.00000   0.00000   0.00000   3.53245
  10        4S          0.00000   3.62717   0.00000   0.00000   0.00000
  11        4PX         0.00000   0.00000  -0.10988   0.00000   0.00000
  12        4PY         0.00000   0.00000   0.00000  -0.10988   0.00000
  13        4PZ        -0.15572   0.00000   0.00000   0.00000  -0.10988
  14        5S          0.00000  -0.31895   0.00000   0.00000   0.00000
  15        5PX         0.00000   0.00000  -0.08091   0.00000   0.00000
  16        5PY         0.00000   0.00000   0.00000  -0.08091   0.00000
  17        5PZ        -0.29705   0.00000   0.00000   0.00000  -0.08091
  18        6D 0        0.00000  -0.00000   0.00000   0.00000   0.00000
  19        6D+1        0.00000   0.00000   0.00000  -1.53097   0.00000
  20        6D-1        0.00000   0.00000  -1.53097   0.00000   0.00000
  21        6D+2        0.00000   0.00000   0.00000   0.00000   0.00000
  22        6D-2        0.59351   0.00000   0.00000   0.00000  -1.53097
  23 2   H  1S          0.59127   0.47232  -0.46941   0.46941  -0.46941
  24        2S         -0.86255  -2.01457  -1.11674   1.11674  -1.11674
  25        3S          0.72673   0.04810   0.33133  -0.33133   0.33133
  26        4PX         0.09997   0.52351   0.40146  -0.62537   0.62537
  27        4PY        -0.09997  -0.52351  -0.62537   0.40146  -0.62537
  28        4PZ        -0.23400   0.52351   0.62537  -0.62537   0.40146
  29 3   H  1S          0.59127   0.47232   0.46941  -0.46941  -0.46941
  30        2S         -0.86255  -2.01457   1.11674  -1.11674  -1.11674
  31        3S          0.72673   0.04810  -0.33133   0.33133   0.33133
  32        4PX        -0.09997  -0.52351   0.40146  -0.62537  -0.62537
  33        4PY         0.09997   0.52351  -0.62537   0.40146   0.62537
  34        4PZ        -0.23400   0.52351  -0.62537   0.62537   0.40146
  35 4   H  1S         -0.59127   0.47232   0.46941   0.46941   0.46941
  36        2S          0.86255  -2.01457   1.11674   1.11674   1.11674
  37        3S         -0.72673   0.04810  -0.33133  -0.33133  -0.33133
  38        4PX         0.09997  -0.52351   0.40146   0.62537   0.62537
  39        4PY         0.09997  -0.52351   0.62537   0.40146   0.62537
  40        4PZ        -0.23400  -0.52351   0.62537   0.62537   0.40146
  41 5   H  1S         -0.59127   0.47232  -0.46941  -0.46941   0.46941
  42        2S          0.86255  -2.01457  -1.11674  -1.11674   1.11674
  43        3S         -0.72673   0.04810   0.33133   0.33133  -0.33133
  44        4PX        -0.09997   0.52351   0.40146   0.62537  -0.62537
  45        4PY        -0.09997   0.52351   0.62537   0.40146  -0.62537
  46        4PZ        -0.23400  -0.52351  -0.62537  -0.62537   0.40146
                          46
                        (A)--V
     Eigenvalues --    24.02491
   1 1   C  1S         -2.04035
   2        2S          2.24870
   3        2PX         0.00000
   4        2PY         0.00000
   5        2PZ         0.00000
   6        3S         -0.79773
   7        3PX         0.00000
   8        3PY         0.00000
   9        3PZ         0.00000
  10        4S          0.05094
  11        4PX         0.00000
  12        4PY         0.00000
  13        4PZ         0.00000
  14        5S          0.18485
  15        5PX         0.00000
  16        5PY         0.00000
  17        5PZ         0.00000
  18        6D 0       -0.00000
  19        6D+1        0.00000
  20        6D-1        0.00000
  21        6D+2       -0.00000
  22        6D-2        0.00000
  23 2   H  1S         -0.02120
  24        2S          0.27662
  25        3S         -0.14353
  26        4PX        -0.09500
  27        4PY         0.09500
  28        4PZ        -0.09500
  29 3   H  1S         -0.02120
  30        2S          0.27662
  31        3S         -0.14353
  32        4PX         0.09500
  33        4PY        -0.09500
  34        4PZ        -0.09500
  35 4   H  1S         -0.02120
  36        2S          0.27662
  37        3S         -0.14353
  38        4PX         0.09500
  39        4PY         0.09500
  40        4PZ         0.09500
  41 5   H  1S         -0.02120
  42        2S          0.27662
  43        3S         -0.14353
  44        4PX        -0.09500
  45        4PY        -0.09500
  46        4PZ         0.09500
     Density Matrix:
                           1         2         3         4         5
   1 1   C  1S          0.65768
   2        2S          0.55831   0.48600
   3        2PX         0.00000   0.00000   0.08450
   4        2PY         0.00000   0.00000  -0.00000   0.08450
   5        2PZ         0.00000   0.00000   0.00000   0.00000   0.08450
   6        3S         -0.07376  -0.13018   0.00000   0.00000   0.00000
   7        3PX         0.00000   0.00000   0.11957  -0.00000   0.00000
   8        3PY         0.00000   0.00000  -0.00000   0.11957   0.00000
   9        3PZ         0.00000   0.00000   0.00000   0.00000   0.11957
  10        4S         -0.06754  -0.09906   0.00000   0.00000   0.00000
  11        4PX         0.00000   0.00000   0.08191  -0.00000   0.00000
  12        4PY         0.00000   0.00000  -0.00000   0.08191   0.00000
  13        4PZ         0.00000   0.00000   0.00000   0.00000   0.08191
  14        5S         -0.00859  -0.01009   0.00000   0.00000   0.00000
  15        5PX         0.00000   0.00000   0.00560  -0.00000   0.00000
  16        5PY         0.00000   0.00000  -0.00000   0.00560   0.00000
  17        5PZ         0.00000   0.00000   0.00000   0.00000   0.00560
  18        6D 0       -0.00000  -0.00000  -0.00000   0.00000  -0.00000
  19        6D+1        0.00000   0.00000   0.00000  -0.00977  -0.00000
  20        6D-1       -0.00000  -0.00000  -0.00977  -0.00000  -0.00000
  21        6D+2       -0.00000  -0.00000   0.00000  -0.00000   0.00000
  22        6D-2       -0.00000  -0.00000  -0.00000  -0.00000  -0.00977
  23 2   H  1S         -0.01849  -0.02886   0.04321  -0.04321   0.04321
  24        2S         -0.02633  -0.03783   0.06027  -0.06027   0.06027
  25        3S          0.00309   0.00204   0.02815  -0.02815   0.02815
  26        4PX         0.00339   0.00427   0.00158   0.00382  -0.00382
  27        4PY        -0.00339  -0.00427   0.00382   0.00158   0.00382
  28        4PZ         0.00339   0.00427  -0.00382   0.00382   0.00158
  29 3   H  1S         -0.01849  -0.02886  -0.04321   0.04321   0.04321
  30        2S         -0.02633  -0.03783  -0.06027   0.06027   0.06027
  31        3S          0.00309   0.00204  -0.02815   0.02815   0.02815
  32        4PX        -0.00339  -0.00427   0.00158   0.00382   0.00382
  33        4PY         0.00339   0.00427   0.00382   0.00158  -0.00382
  34        4PZ         0.00339   0.00427   0.00382  -0.00382   0.00158
  35 4   H  1S         -0.01849  -0.02886  -0.04321  -0.04321  -0.04321
  36        2S         -0.02633  -0.03783  -0.06027  -0.06027  -0.06027
  37        3S          0.00309   0.00204  -0.02815  -0.02815  -0.02815
  38        4PX        -0.00339  -0.00427   0.00158  -0.00382  -0.00382
  39        4PY        -0.00339  -0.00427  -0.00382   0.00158  -0.00382
  40        4PZ        -0.00339  -0.00427  -0.00382  -0.00382   0.00158
  41 5   H  1S         -0.01849  -0.02886   0.04321   0.04321  -0.04321
  42        2S         -0.02633  -0.03783   0.06027   0.06027  -0.06027
  43        3S          0.00309   0.00204   0.02815   0.02815  -0.02815
  44        4PX         0.00339   0.00427   0.00158  -0.00382   0.00382
  45        4PY         0.00339   0.00427  -0.00382   0.00158   0.00382
  46        4PZ        -0.00339  -0.00427   0.00382   0.00382   0.00158
                           6         7         8         9        10
   6        3S          0.38676
   7        3PX         0.00000   0.16919
   8        3PY         0.00000  -0.00000   0.16919
   9        3PZ         0.00000   0.00000   0.00000   0.16919
  10        4S          0.24128   0.00000   0.00000   0.00000   0.15125
  11        4PX         0.00000   0.11590  -0.00000   0.00000   0.00000
  12        4PY         0.00000  -0.00000   0.11590   0.00000   0.00000
  13        4PZ         0.00000   0.00000   0.00000   0.11590   0.00000
  14        5S          0.01660   0.00000   0.00000   0.00000   0.01054
  15        5PX         0.00000   0.00792  -0.00000   0.00000   0.00000
  16        5PY         0.00000  -0.00000   0.00792   0.00000   0.00000
  17        5PZ         0.00000   0.00000   0.00000   0.00792   0.00000
  18        6D 0        0.00000  -0.00000   0.00000  -0.00000   0.00000
  19        6D+1       -0.00000   0.00000  -0.01382  -0.00000  -0.00000
  20        6D-1        0.00000  -0.01382  -0.00000  -0.00000   0.00000
  21        6D+2        0.00000   0.00000  -0.00000   0.00000   0.00000
  22        6D-2        0.00000  -0.00000  -0.00000  -0.01382   0.00000
  23 2   H  1S          0.07580   0.06114  -0.06114   0.06114   0.04743
  24        2S          0.08966   0.08528  -0.08528   0.08528   0.05624
  25        3S          0.00292   0.03984  -0.03984   0.03984   0.00170
  26        4PX        -0.00816   0.00224   0.00541  -0.00541  -0.00515
  27        4PY         0.00816   0.00541   0.00224   0.00541   0.00515
  28        4PZ        -0.00816  -0.00541   0.00541   0.00224  -0.00515
  29 3   H  1S          0.07580  -0.06114   0.06114   0.06114   0.04743
  30        2S          0.08966  -0.08528   0.08528   0.08528   0.05624
  31        3S          0.00292  -0.03984   0.03984   0.03984   0.00170
  32        4PX         0.00816   0.00224   0.00541   0.00541   0.00515
  33        4PY        -0.00816   0.00541   0.00224  -0.00541  -0.00515
  34        4PZ        -0.00816   0.00541  -0.00541   0.00224  -0.00515
  35 4   H  1S          0.07580  -0.06114  -0.06114  -0.06114   0.04743
  36        2S          0.08966  -0.08528  -0.08528  -0.08528   0.05624
  37        3S          0.00292  -0.03984  -0.03984  -0.03984   0.00170
  38        4PX         0.00816   0.00224  -0.00541  -0.00541   0.00515
  39        4PY         0.00816  -0.00541   0.00224  -0.00541   0.00515
  40        4PZ         0.00816  -0.00541  -0.00541   0.00224   0.00515
  41 5   H  1S          0.07580   0.06114   0.06114  -0.06114   0.04743
  42        2S          0.08966   0.08528   0.08528  -0.08528   0.05624
  43        3S          0.00292   0.03984   0.03984  -0.03984   0.00170
  44        4PX        -0.00816   0.00224  -0.00541   0.00541  -0.00515
  45        4PY        -0.00816  -0.00541   0.00224   0.00541  -0.00515
  46        4PZ         0.00816   0.00541   0.00541   0.00224   0.00515
                          11        12        13        14        15
  11        4PX         0.07940
  12        4PY        -0.00000   0.07940
  13        4PZ         0.00000   0.00000   0.07940
  14        5S          0.00000   0.00000   0.00000   0.00076
  15        5PX         0.00543  -0.00000   0.00000   0.00000   0.00037
  16        5PY        -0.00000   0.00543   0.00000   0.00000  -0.00000
  17        5PZ         0.00000   0.00000   0.00543   0.00000   0.00000
  18        6D 0       -0.00000   0.00000  -0.00000   0.00000  -0.00000
  19        6D+1        0.00000  -0.00947  -0.00000  -0.00000   0.00000
  20        6D-1       -0.00947  -0.00000  -0.00000   0.00000  -0.00065
  21        6D+2        0.00000  -0.00000   0.00000   0.00000   0.00000
  22        6D-2       -0.00000  -0.00000  -0.00947   0.00000  -0.00000
  23 2   H  1S          0.04189  -0.04189   0.04189   0.00329   0.00286
  24        2S          0.05842  -0.05842   0.05842   0.00393   0.00399
  25        3S          0.02729  -0.02729   0.02729   0.00009   0.00187
  26        4PX         0.00153   0.00371  -0.00371  -0.00037   0.00010
  27        4PY         0.00371   0.00153   0.00371   0.00037   0.00025
  28        4PZ        -0.00371   0.00371   0.00153  -0.00037  -0.00025
  29 3   H  1S         -0.04189   0.04189   0.04189   0.00329  -0.00286
  30        2S         -0.05842   0.05842   0.05842   0.00393  -0.00399
  31        3S         -0.02729   0.02729   0.02729   0.00009  -0.00187
  32        4PX         0.00153   0.00371   0.00371   0.00037   0.00010
  33        4PY         0.00371   0.00153  -0.00371  -0.00037   0.00025
  34        4PZ         0.00371  -0.00371   0.00153  -0.00037   0.00025
  35 4   H  1S         -0.04189  -0.04189  -0.04189   0.00329  -0.00286
  36        2S         -0.05842  -0.05842  -0.05842   0.00393  -0.00399
  37        3S         -0.02729  -0.02729  -0.02729   0.00009  -0.00187
  38        4PX         0.00153  -0.00371  -0.00371   0.00037   0.00010
  39        4PY        -0.00371   0.00153  -0.00371   0.00037  -0.00025
  40        4PZ        -0.00371  -0.00371   0.00153   0.00037  -0.00025
  41 5   H  1S          0.04189   0.04189  -0.04189   0.00329   0.00286
  42        2S          0.05842   0.05842  -0.05842   0.00393   0.00399
  43        3S          0.02729   0.02729  -0.02729   0.00009   0.00187
  44        4PX         0.00153  -0.00371   0.00371  -0.00037   0.00010
  45        4PY        -0.00371   0.00153   0.00371  -0.00037  -0.00025
  46        4PZ         0.00371   0.00371   0.00153   0.00037   0.00025
                          16        17        18        19        20
  16        5PY         0.00037
  17        5PZ         0.00000   0.00037
  18        6D 0        0.00000  -0.00000   0.00000
  19        6D+1       -0.00065  -0.00000  -0.00000   0.00113
  20        6D-1       -0.00000  -0.00000   0.00000  -0.00000   0.00113
  21        6D+2       -0.00000   0.00000  -0.00000   0.00000  -0.00000
  22        6D-2       -0.00000  -0.00065   0.00000   0.00000   0.00000
  23 2   H  1S         -0.00286   0.00286  -0.00000   0.00500  -0.00500
  24        2S         -0.00399   0.00399  -0.00000   0.00697  -0.00697
  25        3S         -0.00187   0.00187  -0.00000   0.00326  -0.00326
  26        4PX         0.00025  -0.00025   0.00000  -0.00044  -0.00018
  27        4PY         0.00010   0.00025  -0.00000  -0.00018  -0.00044
  28        4PZ         0.00025   0.00010   0.00000  -0.00044   0.00044
  29 3   H  1S          0.00286   0.00286   0.00000  -0.00500   0.00500
  30        2S          0.00399   0.00399   0.00000  -0.00697   0.00697
  31        3S          0.00187   0.00187   0.00000  -0.00326   0.00326
  32        4PX         0.00025   0.00025  -0.00000  -0.00044  -0.00018
  33        4PY         0.00010  -0.00025   0.00000  -0.00018  -0.00044
  34        4PZ        -0.00025   0.00010  -0.00000   0.00044  -0.00044
  35 4   H  1S         -0.00286  -0.00286   0.00000   0.00500   0.00500
  36        2S         -0.00399  -0.00399   0.00000   0.00697   0.00697
  37        3S         -0.00187  -0.00187   0.00000   0.00326   0.00326
  38        4PX        -0.00025  -0.00025   0.00000   0.00044  -0.00018
  39        4PY         0.00010  -0.00025   0.00000  -0.00018   0.00044
  40        4PZ        -0.00025   0.00010   0.00000   0.00044   0.00044
  41 5   H  1S          0.00286  -0.00286   0.00000  -0.00500  -0.00500
  42        2S          0.00399  -0.00399   0.00000  -0.00697  -0.00697
  43        3S          0.00187  -0.00187   0.00000  -0.00326  -0.00326
  44        4PX        -0.00025   0.00025  -0.00000   0.00044  -0.00018
  45        4PY         0.00010   0.00025   0.00000  -0.00018   0.00044
  46        4PZ         0.00025   0.00010  -0.00000  -0.00044  -0.00044
                          21        22        23        24        25
  21        6D+2        0.00000
  22        6D-2       -0.00000   0.00113
  23 2   H  1S          0.00000  -0.00500   0.08117
  24        2S          0.00000  -0.00697   0.11009   0.14988
  25        3S          0.00000  -0.00326   0.04374   0.06087   0.02818
  26        4PX        -0.00000   0.00044  -0.00471  -0.00624  -0.00207
  27        4PY         0.00000  -0.00044   0.00471   0.00624   0.00207
  28        4PZ         0.00000  -0.00018  -0.00471  -0.00624  -0.00207
  29 3   H  1S          0.00000  -0.00500  -0.00721  -0.01319  -0.01385
  30        2S          0.00000  -0.00697  -0.01319  -0.02207  -0.01946
  31        3S          0.00000  -0.00326  -0.01385  -0.01946  -0.00934
  32        4PX         0.00000  -0.00044   0.00242   0.00305   0.00058
  33        4PY        -0.00000   0.00044  -0.00242  -0.00305  -0.00058
  34        4PZ         0.00000  -0.00018   0.00311   0.00467   0.00302
  35 4   H  1S         -0.00000   0.00500  -0.00721  -0.01319  -0.01385
  36        2S         -0.00000   0.00697  -0.01319  -0.02207  -0.01946
  37        3S         -0.00000   0.00326  -0.01385  -0.01946  -0.00934
  38        4PX        -0.00000   0.00044   0.00242   0.00305   0.00058
  39        4PY        -0.00000   0.00044  -0.00311  -0.00467  -0.00302
  40        4PZ         0.00000  -0.00018   0.00242   0.00305   0.00058
  41 5   H  1S         -0.00000   0.00500  -0.00721  -0.01319  -0.01385
  42        2S         -0.00000   0.00697  -0.01319  -0.02207  -0.01946
  43        3S         -0.00000   0.00326  -0.01385  -0.01946  -0.00934
  44        4PX         0.00000  -0.00044   0.00311   0.00467   0.00302
  45        4PY         0.00000  -0.00044  -0.00242  -0.00305  -0.00058
  46        4PZ         0.00000  -0.00018   0.00242   0.00305   0.00058
                          26        27        28        29        30
  26        4PX         0.00055
  27        4PY        -0.00021   0.00055
  28        4PZ         0.00021  -0.00021   0.00055
  29 3   H  1S         -0.00242   0.00242   0.00311   0.08117
  30        2S         -0.00305   0.00305   0.00467   0.11009   0.14988
  31        3S         -0.00058   0.00058   0.00302   0.04374   0.06087
  32        4PX        -0.00015   0.00049  -0.00000   0.00471   0.00624
  33        4PY         0.00049  -0.00015   0.00000  -0.00471  -0.00624
  34        4PZ         0.00000  -0.00000  -0.00014  -0.00471  -0.00624
  35 4   H  1S         -0.00242  -0.00311  -0.00242  -0.00721  -0.01319
  36        2S         -0.00305  -0.00467  -0.00305  -0.01319  -0.02207
  37        3S         -0.00058  -0.00302  -0.00058  -0.01385  -0.01946
  38        4PX        -0.00015   0.00000  -0.00049  -0.00311  -0.00467
  39        4PY        -0.00000  -0.00014  -0.00000   0.00242   0.00305
  40        4PZ        -0.00049   0.00000  -0.00015   0.00242   0.00305
  41 5   H  1S          0.00311   0.00242  -0.00242  -0.00721  -0.01319
  42        2S          0.00467   0.00305  -0.00305  -0.01319  -0.02207
  43        3S          0.00302   0.00058  -0.00058  -0.01385  -0.01946
  44        4PX        -0.00014  -0.00000   0.00000  -0.00242  -0.00305
  45        4PY         0.00000  -0.00015   0.00049   0.00311   0.00467
  46        4PZ        -0.00000   0.00049  -0.00015   0.00242   0.00305
                          31        32        33        34        35
  31        3S          0.02818
  32        4PX         0.00207   0.00055
  33        4PY        -0.00207  -0.00021   0.00055
  34        4PZ        -0.00207  -0.00021   0.00021   0.00055
  35 4   H  1S         -0.01385  -0.00311  -0.00242  -0.00242   0.08117
  36        2S         -0.01946  -0.00467  -0.00305  -0.00305   0.11009
  37        3S         -0.00934  -0.00302  -0.00058  -0.00058   0.04374
  38        4PX        -0.00302  -0.00014  -0.00000  -0.00000   0.00471
  39        4PY         0.00058   0.00000  -0.00015  -0.00049   0.00471
  40        4PZ         0.00058   0.00000  -0.00049  -0.00015   0.00471
  41 5   H  1S         -0.01385   0.00242   0.00311  -0.00242  -0.00721
  42        2S         -0.01946   0.00305   0.00467  -0.00305  -0.01319
  43        3S         -0.00934   0.00058   0.00302  -0.00058  -0.01385
  44        4PX        -0.00058  -0.00015   0.00000   0.00049  -0.00242
  45        4PY         0.00302  -0.00000  -0.00014   0.00000  -0.00242
  46        4PZ         0.00058   0.00049  -0.00000  -0.00015  -0.00311
                          36        37        38        39        40
  36        2S          0.14988
  37        3S          0.06087   0.02818
  38        4PX         0.00624   0.00207   0.00055
  39        4PY         0.00624   0.00207   0.00021   0.00055
  40        4PZ         0.00624   0.00207   0.00021   0.00021   0.00055
  41 5   H  1S         -0.01319  -0.01385   0.00242   0.00242  -0.00311
  42        2S         -0.02207  -0.01946   0.00305   0.00305  -0.00467
  43        3S         -0.01946  -0.00934   0.00058   0.00058  -0.00302
  44        4PX        -0.00305  -0.00058  -0.00015  -0.00049  -0.00000
  45        4PY        -0.00305  -0.00058  -0.00049  -0.00015  -0.00000
  46        4PZ        -0.00467  -0.00302   0.00000   0.00000  -0.00014
                          41        42        43        44        45
  41 5   H  1S          0.08117
  42        2S          0.11009   0.14988
  43        3S          0.04374   0.06087   0.02818
  44        4PX        -0.00471  -0.00624  -0.00207   0.00055
  45        4PY        -0.00471  -0.00624  -0.00207   0.00021   0.00055
  46        4PZ         0.00471   0.00624   0.00207  -0.00021  -0.00021
                          46
  46        4PZ         0.00055
    Full Mulliken population analysis:
                           1         2         3         4         5
   1 1   C  1S          0.65768
   2        2S          0.49044   0.48600
   3        2PX         0.00000   0.00000   0.08450
   4        2PY         0.00000   0.00000   0.00000   0.08450
   5        2PZ         0.00000   0.00000   0.00000   0.00000   0.08450
   6        3S         -0.02428  -0.05452   0.00000   0.00000   0.00000
   7        3PX         0.00000   0.00000   0.07522   0.00000   0.00000
   8        3PY         0.00000   0.00000   0.00000   0.07522   0.00000
   9        3PZ         0.00000   0.00000   0.00000   0.00000   0.07522
  10        4S         -0.01039  -0.01854   0.00000   0.00000   0.00000
  11        4PX         0.00000   0.00000   0.01804   0.00000   0.00000
  12        4PY         0.00000   0.00000   0.00000   0.01804   0.00000
  13        4PZ         0.00000   0.00000   0.00000   0.00000   0.01804
  14        5S         -0.00056  -0.00079   0.00000   0.00000   0.00000
  15        5PX         0.00000   0.00000   0.00032   0.00000   0.00000
  16        5PY         0.00000   0.00000   0.00000   0.00032   0.00000
  17        5PZ         0.00000   0.00000   0.00000   0.00000   0.00032
  18        6D 0        0.00000   0.00000   0.00000   0.00000   0.00000
  19        6D+1        0.00000   0.00000   0.00000   0.00000   0.00000
  20        6D-1       -0.00000  -0.00000   0.00000   0.00000   0.00000
  21        6D+2        0.00000   0.00000   0.00000   0.00000   0.00000
  22        6D-2        0.00000   0.00000   0.00000   0.00000   0.00000
  23 2   H  1S         -0.00022  -0.00031   0.00267   0.00267   0.00267
  24        2S         -0.00196  -0.00337   0.00612   0.00612   0.00612
  25        3S          0.00024   0.00019   0.00108   0.00108   0.00108
  26        4PX        -0.00017  -0.00026  -0.00006   0.00051   0.00051
  27        4PY        -0.00017  -0.00026   0.00051  -0.00006   0.00051
  28        4PZ        -0.00017  -0.00026   0.00051   0.00051  -0.00006
  29 3   H  1S         -0.00022  -0.00031   0.00267   0.00267   0.00267
  30        2S         -0.00196  -0.00337   0.00612   0.00612   0.00612
  31        3S          0.00024   0.00019   0.00108   0.00108   0.00108
  32        4PX        -0.00017  -0.00026  -0.00006   0.00051   0.00051
  33        4PY        -0.00017  -0.00026   0.00051  -0.00006   0.00051
  34        4PZ        -0.00017  -0.00026   0.00051   0.00051  -0.00006
  35 4   H  1S         -0.00022  -0.00031   0.00267   0.00267   0.00267
  36        2S         -0.00196  -0.00337   0.00612   0.00612   0.00612
  37        3S          0.00024   0.00019   0.00108   0.00108   0.00108
  38        4PX        -0.00017  -0.00026  -0.00006   0.00051   0.00051
  39        4PY        -0.00017  -0.00026   0.00051  -0.00006   0.00051
  40        4PZ        -0.00017  -0.00026   0.00051   0.00051  -0.00006
  41 5   H  1S         -0.00022  -0.00031   0.00267   0.00267   0.00267
  42        2S         -0.00196  -0.00337   0.00612   0.00612   0.00612
  43        3S          0.00024   0.00019   0.00108   0.00108   0.00108
  44        4PX        -0.00017  -0.00026  -0.00006   0.00051   0.00051
  45        4PY        -0.00017  -0.00026   0.00051  -0.00006   0.00051
  46        4PZ        -0.00017  -0.00026   0.00051   0.00051  -0.00006
                           6         7         8         9        10
   6        3S          0.38676
   7        3PX         0.00000   0.16919
   8        3PY         0.00000   0.00000   0.16919
   9        3PZ         0.00000   0.00000   0.00000   0.16919
  10        4S          0.18692   0.00000   0.00000   0.00000   0.15125
  11        4PX         0.00000   0.07574   0.00000   0.00000   0.00000
  12        4PY         0.00000   0.00000   0.07574   0.00000   0.00000
  13        4PZ         0.00000   0.00000   0.00000   0.07574   0.00000
  14        5S          0.00681   0.00000   0.00000   0.00000   0.00816
  15        5PX         0.00000   0.00179   0.00000   0.00000   0.00000
  16        5PY         0.00000   0.00000   0.00179   0.00000   0.00000
  17        5PZ         0.00000   0.00000   0.00000   0.00179   0.00000
  18        6D 0       -0.00000   0.00000   0.00000   0.00000  -0.00000
  19        6D+1       -0.00000   0.00000   0.00000   0.00000  -0.00000
  20        6D-1        0.00000   0.00000   0.00000   0.00000   0.00000
  21        6D+2       -0.00000   0.00000   0.00000   0.00000  -0.00000
  22        6D-2       -0.00000   0.00000   0.00000   0.00000  -0.00000
  23 2   H  1S          0.01423   0.01365   0.01365   0.01365   0.01265
  24        2S          0.03819   0.02417   0.02417   0.02417   0.03262
  25        3S          0.00135   0.00534   0.00534   0.00534   0.00129
  26        4PX         0.00183   0.00010   0.00122   0.00122   0.00065
  27        4PY         0.00183   0.00122   0.00010   0.00122   0.00065
  28        4PZ         0.00183   0.00122   0.00122   0.00010   0.00065
  29 3   H  1S          0.01423   0.01365   0.01365   0.01365   0.01265
  30        2S          0.03819   0.02417   0.02417   0.02417   0.03262
  31        3S          0.00135   0.00534   0.00534   0.00534   0.00129
  32        4PX         0.00183   0.00010   0.00122   0.00122   0.00065
  33        4PY         0.00183   0.00122   0.00010   0.00122   0.00065
  34        4PZ         0.00183   0.00122   0.00122   0.00010   0.00065
  35 4   H  1S          0.01423   0.01365   0.01365   0.01365   0.01265
  36        2S          0.03819   0.02417   0.02417   0.02417   0.03262
  37        3S          0.00135   0.00534   0.00534   0.00534   0.00129
  38        4PX         0.00183   0.00010   0.00122   0.00122   0.00065
  39        4PY         0.00183   0.00122   0.00010   0.00122   0.00065
  40        4PZ         0.00183   0.00122   0.00122   0.00010   0.00065
  41 5   H  1S          0.01423   0.01365   0.01365   0.01365   0.01265
  42        2S          0.03819   0.02417   0.02417   0.02417   0.03262
  43        3S          0.00135   0.00534   0.00534   0.00534   0.00129
  44        4PX         0.00183   0.00010   0.00122   0.00122   0.00065
  45        4PY         0.00183   0.00122   0.00010   0.00122   0.00065
  46        4PZ         0.00183   0.00122   0.00122   0.00010   0.00065
                          11        12        13        14        15
  11        4PX         0.07940
  12        4PY         0.00000   0.07940
  13        4PZ         0.00000   0.00000   0.07940
  14        5S          0.00000   0.00000   0.00000   0.00076
  15        5PX         0.00354   0.00000   0.00000   0.00000   0.00037
  16        5PY         0.00000   0.00354   0.00000   0.00000   0.00000
  17        5PZ         0.00000   0.00000   0.00354   0.00000   0.00000
  18        6D 0        0.00000   0.00000   0.00000  -0.00000   0.00000
  19        6D+1        0.00000   0.00000   0.00000  -0.00000   0.00000
  20        6D-1        0.00000   0.00000   0.00000   0.00000   0.00000
  21        6D+2        0.00000   0.00000   0.00000  -0.00000   0.00000
  22        6D-2        0.00000   0.00000   0.00000  -0.00000   0.00000
  23 2   H  1S          0.00906   0.00906   0.00906   0.00058   0.00024
  24        2S          0.02124   0.02124   0.02124   0.00173   0.00077
  25        3S          0.00775   0.00775   0.00775   0.00007   0.00050
  26        4PX         0.00028   0.00036   0.00036   0.00001   0.00001
  27        4PY         0.00036   0.00028   0.00036   0.00001   0.00000
  28        4PZ         0.00036   0.00036   0.00028   0.00001   0.00000
  29 3   H  1S          0.00906   0.00906   0.00906   0.00058   0.00024
  30        2S          0.02124   0.02124   0.02124   0.00173   0.00077
  31        3S          0.00775   0.00775   0.00775   0.00007   0.00050
  32        4PX         0.00028   0.00036   0.00036   0.00001   0.00001
  33        4PY         0.00036   0.00028   0.00036   0.00001   0.00000
  34        4PZ         0.00036   0.00036   0.00028   0.00001   0.00000
  35 4   H  1S          0.00906   0.00906   0.00906   0.00058   0.00024
  36        2S          0.02124   0.02124   0.02124   0.00173   0.00077
  37        3S          0.00775   0.00775   0.00775   0.00007   0.00050
  38        4PX         0.00028   0.00036   0.00036   0.00001   0.00001
  39        4PY         0.00036   0.00028   0.00036   0.00001   0.00000
  40        4PZ         0.00036   0.00036   0.00028   0.00001   0.00000
  41 5   H  1S          0.00906   0.00906   0.00906   0.00058   0.00024
  42        2S          0.02124   0.02124   0.02124   0.00173   0.00077
  43        3S          0.00775   0.00775   0.00775   0.00007   0.00050
  44        4PX         0.00028   0.00036   0.00036   0.00001   0.00001
  45        4PY         0.00036   0.00028   0.00036   0.00001   0.00000
  46        4PZ         0.00036   0.00036   0.00028   0.00001   0.00000
                          16        17        18        19        20
  16        5PY         0.00037
  17        5PZ         0.00000   0.00037
  18        6D 0        0.00000   0.00000   0.00000
  19        6D+1        0.00000   0.00000  -0.00000   0.00113
  20        6D-1        0.00000   0.00000   0.00000   0.00000   0.00113
  21        6D+2        0.00000   0.00000  -0.00000   0.00000   0.00000
  22        6D-2        0.00000   0.00000   0.00000   0.00000   0.00000
  23 2   H  1S          0.00024   0.00024   0.00000   0.00119   0.00119
  24        2S          0.00077   0.00077   0.00000   0.00108   0.00108
  25        3S          0.00050   0.00050  -0.00000   0.00009   0.00009
  26        4PX         0.00000   0.00000  -0.00000  -0.00000  -0.00004
  27        4PY         0.00001   0.00000  -0.00000  -0.00004  -0.00000
  28        4PZ         0.00000   0.00001   0.00000  -0.00000  -0.00000
  29 3   H  1S          0.00024   0.00024   0.00000   0.00119   0.00119
  30        2S          0.00077   0.00077  -0.00000   0.00108   0.00108
  31        3S          0.00050   0.00050  -0.00000   0.00009   0.00009
  32        4PX         0.00000   0.00000  -0.00000  -0.00000  -0.00004
  33        4PY         0.00001   0.00000  -0.00000  -0.00004  -0.00000
  34        4PZ         0.00000   0.00001  -0.00000  -0.00000  -0.00000
  35 4   H  1S          0.00024   0.00024   0.00000   0.00119   0.00119
  36        2S          0.00077   0.00077   0.00000   0.00108   0.00108
  37        3S          0.00050   0.00050   0.00000   0.00009   0.00009
  38        4PX         0.00000   0.00000   0.00000  -0.00000  -0.00004
  39        4PY         0.00001   0.00000   0.00000  -0.00004  -0.00000
  40        4PZ         0.00000   0.00001  -0.00000  -0.00000  -0.00000
  41 5   H  1S          0.00024   0.00024  -0.00000   0.00119   0.00119
  42        2S          0.00077   0.00077   0.00000   0.00108   0.00108
  43        3S          0.00050   0.00050  -0.00000   0.00009   0.00009
  44        4PX         0.00000   0.00000   0.00000  -0.00000  -0.00004
  45        4PY         0.00001   0.00000  -0.00000  -0.00004  -0.00000
  46        4PZ         0.00000   0.00001   0.00000  -0.00000  -0.00000
                          21        22        23        24        25
  21        6D+2        0.00000
  22        6D-2       -0.00000   0.00113
  23 2   H  1S          0.00000   0.00119   0.08117
  24        2S          0.00000   0.00108   0.07777   0.14988
  25        3S         -0.00000   0.00009   0.01634   0.04802   0.02818
  26        4PX        -0.00000  -0.00000   0.00000   0.00000   0.00000
  27        4PY         0.00000  -0.00000   0.00000   0.00000   0.00000
  28        4PZ         0.00000  -0.00004   0.00000   0.00000   0.00000
  29 3   H  1S          0.00000   0.00119  -0.00001  -0.00051  -0.00177
  30        2S          0.00000   0.00108  -0.00051  -0.00351  -0.00635
  31        3S          0.00000   0.00009  -0.00177  -0.00635  -0.00523
  32        4PX        -0.00000  -0.00000   0.00003   0.00026   0.00005
  33        4PY         0.00000  -0.00000   0.00003   0.00026   0.00005
  34        4PZ        -0.00000  -0.00004   0.00000   0.00000   0.00000
  35 4   H  1S          0.00000   0.00119  -0.00001  -0.00051  -0.00177
  36        2S          0.00000   0.00108  -0.00051  -0.00351  -0.00635
  37        3S          0.00000   0.00009  -0.00177  -0.00635  -0.00523
  38        4PX         0.00000  -0.00000   0.00003   0.00026   0.00005
  39        4PY        -0.00000  -0.00000  -0.00000  -0.00000  -0.00000
  40        4PZ        -0.00000  -0.00004   0.00003   0.00026   0.00005
  41 5   H  1S          0.00000   0.00119  -0.00001  -0.00051  -0.00177
  42        2S          0.00000   0.00108  -0.00051  -0.00351  -0.00635
  43        3S          0.00000   0.00009  -0.00177  -0.00635  -0.00523
  44        4PX         0.00000  -0.00000   0.00000   0.00000   0.00000
  45        4PY        -0.00000  -0.00000   0.00003   0.00026   0.00005
  46        4PZ        -0.00000  -0.00004   0.00003   0.00026   0.00005
                          26        27        28        29        30
  26        4PX         0.00055
  27        4PY         0.00000   0.00055
  28        4PZ         0.00000  -0.00000   0.00055
  29 3   H  1S          0.00003   0.00003   0.00000   0.08117
  30        2S          0.00026   0.00026   0.00000   0.07777   0.14988
  31        3S          0.00005   0.00005   0.00000   0.01634   0.04802
  32        4PX         0.00001   0.00003  -0.00000   0.00000   0.00000
  33        4PY         0.00003   0.00001  -0.00000   0.00000   0.00000
  34        4PZ         0.00000   0.00000  -0.00000   0.00000   0.00000
  35 4   H  1S          0.00003   0.00000   0.00003  -0.00001  -0.00051
  36        2S          0.00026   0.00000   0.00026  -0.00051  -0.00351
  37        3S          0.00005   0.00000   0.00005  -0.00177  -0.00635
  38        4PX         0.00001  -0.00000   0.00003   0.00000   0.00000
  39        4PY         0.00000  -0.00000   0.00000   0.00003   0.00026
  40        4PZ         0.00003  -0.00000   0.00001   0.00003   0.00026
  41 5   H  1S         -0.00000   0.00003   0.00003  -0.00001  -0.00051
  42        2S         -0.00000   0.00026   0.00026  -0.00051  -0.00351
  43        3S         -0.00000   0.00005   0.00005  -0.00177  -0.00635
  44        4PX        -0.00000  -0.00000  -0.00000   0.00003   0.00026
  45        4PY         0.00000   0.00001   0.00003  -0.00000  -0.00000
  46        4PZ         0.00000   0.00003   0.00001   0.00003   0.00026
                          31        32        33        34        35
  31        3S          0.02818
  32        4PX         0.00000   0.00055
  33        4PY         0.00000  -0.00000   0.00055
  34        4PZ         0.00000  -0.00000  -0.00000   0.00055
  35 4   H  1S         -0.00177   0.00000   0.00003   0.00003   0.08117
  36        2S         -0.00635   0.00000   0.00026   0.00026   0.07777
  37        3S         -0.00523   0.00000   0.00005   0.00005   0.01634
  38        4PX         0.00000  -0.00000  -0.00000  -0.00000   0.00000
  39        4PY         0.00005   0.00000   0.00001   0.00003   0.00000
  40        4PZ         0.00005   0.00000   0.00003   0.00001   0.00000
  41 5   H  1S         -0.00177   0.00003   0.00000   0.00003  -0.00001
  42        2S         -0.00635   0.00026   0.00000   0.00026  -0.00051
  43        3S         -0.00523   0.00005   0.00000   0.00005  -0.00177
  44        4PX         0.00005   0.00001  -0.00000   0.00003   0.00003
  45        4PY        -0.00000   0.00000  -0.00000   0.00000   0.00003
  46        4PZ         0.00005   0.00003  -0.00000   0.00001   0.00000
                          36        37        38        39        40
  36        2S          0.14988
  37        3S          0.04802   0.02818
  38        4PX         0.00000   0.00000   0.00055
  39        4PY         0.00000   0.00000  -0.00000   0.00055
  40        4PZ         0.00000   0.00000  -0.00000  -0.00000   0.00055
  41 5   H  1S         -0.00051  -0.00177   0.00003   0.00003   0.00000
  42        2S         -0.00351  -0.00635   0.00026   0.00026   0.00000
  43        3S         -0.00635  -0.00523   0.00005   0.00005   0.00000
  44        4PX         0.00026   0.00005   0.00001   0.00003   0.00000
  45        4PY         0.00026   0.00005   0.00003   0.00001   0.00000
  46        4PZ         0.00000   0.00000  -0.00000  -0.00000  -0.00000
                          41        42        43        44        45
  41 5   H  1S          0.08117
  42        2S          0.07777   0.14988
  43        3S          0.01634   0.04802   0.02818
  44        4PX         0.00000   0.00000   0.00000   0.00055
  45        4PY         0.00000   0.00000   0.00000   0.00000   0.00055
  46        4PZ         0.00000   0.00000   0.00000  -0.00000  -0.00000
                          46
  46        4PZ         0.00055
     Gross orbital populations:
                           1
   1 1   C  1S          1.10310
   2        2S          0.88554
   3        2PX         0.22139
   4        2PY         0.22139
   5        2PZ         0.22139
   6        3S          0.73871
   7        3PX         0.50474
   8        3PY         0.50474
   9        3PZ         0.50474
  10        4S          0.51145
  11        4PX         0.33290
  12        4PY         0.33290
  13        4PZ         0.33290
  14        5S          0.02404
  15        5PX         0.01216
  16        5PY         0.01216
  17        5PZ         0.01216
  18        6D 0        0.00000
  19        6D+1        0.01035
  20        6D-1        0.01035
  21        6D+2        0.00000
  22        6D-2        0.01035
  23 2   H  1S          0.27594
  24        2S          0.47345
  25        3S          0.10028
  26        4PX         0.00782
  27        4PY         0.00782
  28        4PZ         0.00782
  29 3   H  1S          0.27594
  30        2S          0.47345
  31        3S          0.10028
  32        4PX         0.00782
  33        4PY         0.00782
  34        4PZ         0.00782
  35 4   H  1S          0.27594
  36        2S          0.47345
  37        3S          0.10028
  38        4PX         0.00782
  39        4PY         0.00782
  40        4PZ         0.00782
  41 5   H  1S          0.27594
  42        2S          0.47345
  43        3S          0.10028
  44        4PX         0.00782
  45        4PY         0.00782
  46        4PZ         0.00782
          Condensed to atoms (all electrons):
               1          2          3          4          5
     1  C    4.900671   0.401689   0.401689   0.401689   0.401689
     2  H    0.401689   0.545153  -0.024566  -0.024566  -0.024566
     3  H    0.401689  -0.024566   0.545153  -0.024566  -0.024566
     4  H    0.401689  -0.024566  -0.024566   0.545153  -0.024566
     5  H    0.401689  -0.024566  -0.024566  -0.024566   0.545153
 Mulliken charges:
               1
     1  C   -0.507426
     2  H    0.126857
     3  H    0.126857
     4  H    0.126857
     5  H    0.126857
 Sum of Mulliken charges =  -0.00000
 Mulliken charges with hydrogens summed into heavy atoms:
               1
     1  C   -0.000000
 Electronic spatial extent (au):  <R**2>=             35.8791
 Charge=              0.0000 electrons
 Dipole moment (field-independent basis, Debye):
    X=              0.0000    Y=             -0.0000    Z=             -0.0000  Tot=              0.0000
 Quadrupole moment (field-independent basis, Debye-Ang):
   XX=             -8.4912   YY=             -8.4912   ZZ=             -8.4912
   XY=             -0.0000   XZ=              0.0000   YZ=             -0.0000
 Traceless Quadrupole moment (field-independent basis, Debye-Ang):
   XX=             -0.0000   YY=             -0.0000   ZZ=              0.0000
   XY=             -0.0000   XZ=              0.0000   YZ=             -0.0000
 Octapole moment (field-independent basis, Debye-Ang**2):
  XXX=              0.0000  YYY=             -0.0000  ZZZ=              0.0000  XYY=              0.0000
  XXY=             -0.0000  XXZ=             -0.0000  XZZ=              0.0000  YZZ=              0.0000
  YYZ=             -0.0000  XYZ=             -0.7309
 Hexadecapole moment (field-independent basis, Debye-Ang**3):
 XXXX=            -17.2640 YYYY=            -17.2640 ZZZZ=            -17.2640 XXXY=              0.0000
 XXXZ=             -0.0000 YYYX=              0.0000 YYYZ=             -0.0000 ZZZX=             -0.0000
 ZZZY=             -0.0000 XXYY=             -5.2451 XXZZ=             -5.2451 YYZZ=             -5.2451
 XXYZ=             -0.0000 YYXZ=             -0.0000 ZZXY=              0.0000
 N-N= 1.344772661844D+01 E-N=-1.201518494722D+02  KE= 4.028876827453D+01
 Symmetry A    KE= 3.444321919017D+01
 Symmetry B1   KE= 1.948516361456D+00
 Symmetry B2   KE= 1.948516361456D+00
 Symmetry B3   KE= 1.948516361456D+00
 Orbital energies and kinetic energies (alpha):
                                 1                 2
   1         (A)--O          -10.152290         15.954688
   2         (A)--O           -0.697194          1.266921
   3         (T)--O           -0.395698          0.974258
   4         (T)--O           -0.395698          0.974258
   5         (T)--O           -0.395698          0.974258
   6         (A)--V            0.009631          0.294567
   7         (T)--V            0.057136          0.201989
   8         (T)--V            0.057136          0.201989
   9         (T)--V            0.057136          0.201989
  10         (T)--V            0.146321          0.646711
  11         (T)--V            0.146321          0.646711
  12         (T)--V            0.146321          0.646711
  13         (A)--V            0.211079          0.766449
  14         (T)--V            0.400425          0.804267
  15         (T)--V            0.400425          0.804267
  16         (T)--V            0.400425          0.804267
  17         (T)--V            0.595885          1.837900
  18         (T)--V            0.595885          1.837900
  19         (T)--V            0.595885          1.837900
  20         (A)--V            0.605337          1.284583
  21         (A)--V            0.824560          2.447231
  22         (E)--V            0.964445          1.723654
  23         (E)--V            0.964445          1.723654
  24         (T)--V            1.455585          2.085749
  25         (T)--V            1.455585          2.085749
  26         (T)--V            1.455585          2.085749
  27         (T)--V            1.533327          2.371234
  28         (T)--V            1.533327          2.371234
  29         (T)--V            1.533327          2.371234
  30         (T)--V            1.902743          2.868134
  31         (T)--V            1.902743          2.868134
  32         (T)--V            1.902743          2.868134
  33         (A)--V            2.279585          3.999413
  34         (E)--V            2.316604          3.146982
  35         (E)--V            2.316604          3.146982
  36         (T)--V            2.476867          3.875758
  37         (T)--V            2.476867          3.875758
  38         (T)--V            2.476867          3.875758
  39         (T)--V            2.545157          4.680977
  40         (T)--V            2.545157          4.680977
  41         (T)--V            2.545157          4.680977
  42         (A)--V            2.874793          4.536956
  43         (T)--V            3.795281          6.294175
  44         (T)--V            3.795281          6.294175
  45         (T)--V            3.795281          6.294175
  46         (A)--V           24.024909         60.389931
 Total kinetic energy from orbitals= 4.028876827453D+01
 No NMR shielding tensors so no spin-rotation constants.
 Leave Link  601 at Tue Jun 30 11:52:30 2026, MaxMem=   104857600 cpu:               0.1 elap:               0.1
 (Enter /sw/apps/software/noarch/Gaussian/g16.B01/g16/l607.exe)
 ******************************Gaussian NBO Version 3.1******************************
             N A T U R A L   A T O M I C   O R B I T A L   A N D
          N A T U R A L   B O N D   O R B I T A L   A N A L Y S I S
 ******************************Gaussian NBO Version 3.1******************************

       /NBO    / : Print Natural Bond Orbital Analysis
       /RESON  / : Allow strongly delocalized NBO set
       /PLOT   / : Write information for the orbital plotter
       /BNDIDX / : Print bond indices based on the NAO density matrix

 Analyzing the SCF density

 Job title: Geometry optimization + ground-state NBO analysis               

 Storage needed:      6652 in NPA,      8649 in NBO,      6603 in NLMO ( 104857425 available)
 GSVD:  LWork=         202 too small for GESVD, short by        3365 words or        3365 for optimal perf.


 NATURAL POPULATIONS:  Natural atomic orbital occupancies 
                                                          
   NAO  Atom  No  lang   Type(AO)    Occupancy      Energy
 ----------------------------------------------------------
     1    C    1  S      Cor( 1S)     1.99948     -10.01096
     2    C    1  S      Val( 2S)     1.15917      -0.27884
     3    C    1  S      Ryd( 3S)     0.00000       0.78486
     4    C    1  S      Ryd( 4S)     0.00000       5.41535
     5    C    1  S      Ryd( 5S)     0.00000      18.27409
     6    C    1  px     Val( 2p)     1.21648      -0.09508
     7    C    1  px     Ryd( 4p)     0.00000       0.66000
     8    C    1  px     Ryd( 5p)     0.00000       2.71180
     9    C    1  px     Ryd( 3p)     0.00000       0.42010
    10    C    1  py     Val( 2p)     1.21648      -0.09508
    11    C    1  py     Ryd( 4p)     0.00000       0.66000
    12    C    1  py     Ryd( 5p)     0.00000       2.71180
    13    C    1  py     Ryd( 3p)     0.00000       0.42010
    14    C    1  pz     Val( 2p)     1.21648      -0.09508
    15    C    1  pz     Ryd( 4p)     0.00000       0.66000
    16    C    1  pz     Ryd( 5p)     0.00000       2.71180
    17    C    1  pz     Ryd( 3p)     0.00000       0.42010
    18    C    1  dxy    Ryd( 3d)     0.00087       2.23105
    19    C    1  dxz    Ryd( 3d)     0.00087       2.23105
    20    C    1  dyz    Ryd( 3d)     0.00087       2.23105
    21    C    1  dx2y2  Ryd( 3d)     0.00000       1.74010
    22    C    1  dz2    Ryd( 3d)     0.00000       1.74010

    23    H    2  S      Val( 1S)     0.79659       0.03694
    24    H    2  S      Ryd( 2S)     0.00015       0.99801
    25    H    2  S      Ryd( 3S)     0.00007       1.65034
    26    H    2  px     Ryd( 2p)     0.00017       1.99101
    27    H    2  py     Ryd( 2p)     0.00017       1.99101
    28    H    2  pz     Ryd( 2p)     0.00017       1.99101

    29    H    3  S      Val( 1S)     0.79659       0.03694
    30    H    3  S      Ryd( 2S)     0.00015       0.99801
    31    H    3  S      Ryd( 3S)     0.00007       1.65034
    32    H    3  px     Ryd( 2p)     0.00017       1.99101
    33    H    3  py     Ryd( 2p)     0.00017       1.99101
    34    H    3  pz     Ryd( 2p)     0.00017       1.99101

    35    H    4  S      Val( 1S)     0.79659       0.03694
    36    H    4  S      Ryd( 2S)     0.00015       0.99801
    37    H    4  S      Ryd( 3S)     0.00007       1.65034
    38    H    4  px     Ryd( 2p)     0.00017       1.99101
    39    H    4  py     Ryd( 2p)     0.00017       1.99101
    40    H    4  pz     Ryd( 2p)     0.00017       1.99101

    41    H    5  S      Val( 1S)     0.79659       0.03694
    42    H    5  S      Ryd( 2S)     0.00015       0.99801
    43    H    5  S      Ryd( 3S)     0.00007       1.65034
    44    H    5  px     Ryd( 2p)     0.00017       1.99101
    45    H    5  py     Ryd( 2p)     0.00017       1.99101
    46    H    5  pz     Ryd( 2p)     0.00017       1.99101

 WARNING:  Population inversion found on atom  C    1


 Summary of Natural Population Analysis:                  
                                                          
                                       Natural Population 
                Natural  -----------------------------------------------
    Atom  No    Charge         Core      Valence    Rydberg      Total
 -----------------------------------------------------------------------
      C    1   -0.81070      1.99948     4.80861    0.00260     6.81070
      H    2    0.20267      0.00000     0.79659    0.00073     0.79733
      H    3    0.20267      0.00000     0.79659    0.00073     0.79733
      H    4    0.20267      0.00000     0.79659    0.00073     0.79733
      H    5    0.20267      0.00000     0.79659    0.00073     0.79733
 =======================================================================
   * Total *   -0.00000      1.99948     7.99498    0.00554    10.00000

                                 Natural Population      
 --------------------------------------------------------
   Core                       1.99948 ( 99.9742% of   2)
   Valence                    7.99498 ( 99.9372% of   8)
   Natural Minimal Basis      9.99446 ( 99.9446% of  10)
   Natural Rydberg Basis      0.00554 (  0.0554% of  10)
 --------------------------------------------------------

    Atom  No          Natural Electron Configuration
 ----------------------------------------------------------------------------
      C    1      [core]2S( 1.16)2p( 3.65)
      H    2            1S( 0.80)
      H    3            1S( 0.80)
      H    4            1S( 0.80)
      H    5            1S( 0.80)


 Wiberg bond index matrix in the NAO basis:                                    

     Atom    1       2       3       4       5
     ---- ------  ------  ------  ------  ------
   1.  C  0.0000  0.9585  0.9585  0.9585  0.9585
   2.  H  0.9585  0.0000  0.0004  0.0004  0.0004
   3.  H  0.9585  0.0004  0.0000  0.0004  0.0004
   4.  H  0.9585  0.0004  0.0004  0.0000  0.0004
   5.  H  0.9585  0.0004  0.0004  0.0004  0.0000


 Wiberg bond index, Totals by atom:                                            

     Atom    1
     ---- ------
   1.  C  3.8340
   2.  H  0.9596
   3.  H  0.9596
   4.  H  0.9596
   5.  H  0.9596


 Atom-atom overlap-weighted NAO bond order:                                    

     Atom    1       2       3       4       5
     ---- ------  ------  ------  ------  ------
   1.  C  0.0000  0.7927  0.7927  0.7927  0.7927
   2.  H  0.7927  0.0000  0.0066  0.0066  0.0066
   3.  H  0.7927  0.0066  0.0000  0.0066  0.0066
   4.  H  0.7927  0.0066  0.0066  0.0000  0.0066
   5.  H  0.7927  0.0066  0.0066  0.0066  0.0000


 Atom-atom overlap-weighted NAO bond order, Totals by atom:                    

     Atom    1
     ---- ------
   1.  C  3.1707
   2.  H  0.8124
   3.  H  0.8124
   4.  H  0.8124
   5.  H  0.8124


 MO bond order:                                                                

     Atom    1       2       3       4       5
     ---- ------  ------  ------  ------  ------
   1.  C  0.0000  0.9658  0.9658 -0.9762  0.9658
   2.  H  0.9658  0.0000  0.0238  0.0061  0.0238
   3.  H  0.9658  0.0238  0.0000  0.0061  0.0238
   4.  H -0.9762  0.0061  0.0061  0.0000  0.0061
   5.  H  0.9658  0.0238  0.0238  0.0061  0.0000


 MO atomic valencies:                                                          

     Atom    1
     ---- ------
   1.  C  1.9211
   2.  H  1.0193
   3.  H  1.0193
   4.  H -0.9580
   5.  H  1.0193


 NATURAL BOND ORBITAL ANALYSIS:

                       Occupancies       Lewis Structure    Low   High
           Occ.    -------------------  -----------------   occ   occ
  Cycle   Thresh.   Lewis   Non-Lewis     CR  BD  3C  LP    (L)   (NL)   Dev
 =============================================================================
   1(1)    1.90     9.99698   0.00302      1   4   0   0     0      0    0.00
 -----------------------------------------------------------------------------

 Structure accepted: No low occupancy Lewis orbitals

 --------------------------------------------------------
   Core                      1.99948 ( 99.974% of   2)
   Valence Lewis             7.99750 ( 99.969% of   8)
  ==================       ============================
   Total Lewis               9.99698 ( 99.970% of  10)
  -----------------------------------------------------
   Valence non-Lewis         0.00131 (  0.013% of  10)
   Rydberg non-Lewis         0.00171 (  0.017% of  10)
  ==================       ============================
   Total non-Lewis           0.00302 (  0.030% of  10)
 --------------------------------------------------------


       (Occupancy)   Bond orbital/ Coefficients/ Hybrids
 ---------------------------------------------------------------------------------
     1. (1.99937) BD ( 1) C   1 - H   2  
                ( 60.15%)   0.7756* C   1 s( 25.00%)p 3.00( 74.95%)d 0.00(  0.05%)
                                            0.0000  0.5000  0.0000  0.0000  0.0000
                                            0.4998  0.0000  0.0000  0.0000 -0.4998
                                            0.0000  0.0000  0.0000  0.4998  0.0000
                                            0.0000  0.0000 -0.0133  0.0133 -0.0133
                                            0.0000  0.0000
                ( 39.85%)   0.6312* H   2 s( 99.96%)p 0.00(  0.04%)
                                            0.9998 -0.0002  0.0002 -0.0113  0.0113
                                           -0.0113
     2. (1.99937) BD ( 1) C   1 - H   3  
                ( 60.15%)   0.7756* C   1 s( 25.00%)p 3.00( 74.95%)d 0.00(  0.05%)
                                            0.0000  0.5000  0.0000  0.0000  0.0000
                                           -0.4998  0.0000  0.0000  0.0000  0.4998
                                            0.0000  0.0000  0.0000  0.4998  0.0000
                                            0.0000  0.0000 -0.0133 -0.0133  0.0133
                                            0.0000  0.0000
                ( 39.85%)   0.6312* H   3 s( 99.96%)p 0.00(  0.04%)
                                            0.9998 -0.0002  0.0002  0.0113 -0.0113
                                           -0.0113
     3. (1.99937) BD ( 1) C   1 - H   4  
                ( 60.15%)   0.7756* C   1 s( 25.00%)p 3.00( 74.95%)d 0.00(  0.05%)
                                            0.0000  0.5000  0.0000  0.0000  0.0000
                                           -0.4998  0.0000  0.0000  0.0000 -0.4998
                                            0.0000  0.0000  0.0000 -0.4998  0.0000
                                            0.0000  0.0000  0.0133  0.0133  0.0133
                                            0.0000  0.0000
                ( 39.85%)   0.6312* H   4 s( 99.96%)p 0.00(  0.04%)
                                            0.9998 -0.0002  0.0002  0.0113  0.0113
                                            0.0113
     4. (1.99937) BD ( 1) C   1 - H   5  
                ( 60.15%)   0.7756* C   1 s( 25.00%)p 3.00( 74.95%)d 0.00(  0.05%)
                                            0.0000  0.5000  0.0000  0.0000  0.0000
                                            0.4998  0.0000  0.0000  0.0000  0.4998
                                            0.0000  0.0000  0.0000 -0.4998  0.0000
                                            0.0000  0.0000  0.0133 -0.0133 -0.0133
                                            0.0000  0.0000
                ( 39.85%)   0.6312* H   5 s( 99.96%)p 0.00(  0.04%)
                                            0.9998 -0.0002  0.0002 -0.0113 -0.0113
                                            0.0113
     5. (1.99948) CR ( 1) C   1           s(100.00%)
                                            1.0000 -0.0001  0.0000  0.0000  0.0000
                                            0.0000  0.0000  0.0000  0.0000  0.0000
                                            0.0000  0.0000  0.0000 -0.0000  0.0000
                                            0.0000  0.0000  0.0000 -0.0000 -0.0000
                                            0.0000  0.0000
     6. (0.00000) RY*( 1) C   1           s(100.00%)
     7. (0.00000) RY*( 2) C   1           s(100.00%)
     8. (0.00000) RY*( 3) C   1           s(100.00%)
     9. (0.00000) RY*( 4) C   1           s(  0.00%)p 1.00(100.00%)
    10. (0.00000) RY*( 5) C   1           s(  0.00%)p 1.00(100.00%)
    11. (0.00000) RY*( 6) C   1           s(  0.00%)p 1.00(100.00%)
    12. (0.00000) RY*( 7) C   1           s(  0.00%)p 1.00(100.00%)
    13. (0.00000) RY*( 8) C   1           s(  0.00%)p 1.00(100.00%)
    14. (0.00000) RY*( 9) C   1           s(  0.00%)p 1.00(100.00%)
    15. (0.00000) RY*(10) C   1           s(  0.00%)p 1.00(100.00%)
    16. (0.00000) RY*(11) C   1           s(  0.00%)p 1.00(100.00%)
    17. (0.00000) RY*(12) C   1           s(  0.00%)p 1.00(100.00%)
    18. (0.00000) RY*(13) C   1           s(  0.00%)p 1.00(  0.07%)d99.99( 99.93%)
    19. (0.00000) RY*(14) C   1           s(  0.00%)p 1.00(  0.07%)d99.99( 99.93%)
    20. (0.00000) RY*(15) C   1           s(  0.00%)p 1.00(  0.07%)d99.99( 99.93%)
    21. (0.00000) RY*(16) C   1           s(  0.00%)p 0.00(  0.00%)d 1.00(100.00%)
    22. (0.00000) RY*(17) C   1           s(  0.00%)p 0.00(  0.00%)d 1.00(100.00%)
    23. (0.00017) RY*( 1) H   2           s( 85.56%)p 0.17( 14.44%)
                                           -0.0072  0.9238 -0.0461 -0.2194  0.2194
                                           -0.2194
    24. (0.00009) RY*( 2) H   2           s(  0.00%)p 1.00(100.00%)
    25. (0.00009) RY*( 3) H   2           s(  0.00%)p 1.00(100.00%)
    26. (0.00007) RY*( 4) H   2           s( 97.86%)p 0.02(  2.14%)
    27. (0.00000) RY*( 5) H   2           s( 16.61%)p 5.02( 83.39%)
    28. (0.00017) RY*( 1) H   3           s( 85.56%)p 0.17( 14.44%)
                                           -0.0072  0.9238 -0.0461  0.2194 -0.2194
                                           -0.2194
    29. (0.00009) RY*( 2) H   3           s(  0.00%)p 1.00(100.00%)
    30. (0.00009) RY*( 3) H   3           s(  0.00%)p 1.00(100.00%)
    31. (0.00007) RY*( 4) H   3           s( 97.86%)p 0.02(  2.14%)
    32. (0.00000) RY*( 5) H   3           s( 16.61%)p 5.02( 83.39%)
    33. (0.00017) RY*( 1) H   4           s( 85.56%)p 0.17( 14.44%)
                                           -0.0072  0.9238 -0.0461  0.2194  0.2194
                                            0.2194
    34. (0.00009) RY*( 2) H   4           s(  0.00%)p 1.00(100.00%)
    35. (0.00009) RY*( 3) H   4           s(  0.00%)p 1.00(100.00%)
    36. (0.00007) RY*( 4) H   4           s( 97.86%)p 0.02(  2.14%)
    37. (0.00000) RY*( 5) H   4           s( 16.61%)p 5.02( 83.39%)
    38. (0.00017) RY*( 1) H   5           s( 85.56%)p 0.17( 14.44%)
                                           -0.0072  0.9238 -0.0461 -0.2194 -0.2194
                                            0.2194
    39. (0.00009) RY*( 2) H   5           s(  0.00%)p 1.00(100.00%)
    40. (0.00009) RY*( 3) H   5           s(  0.00%)p 1.00(100.00%)
    41. (0.00007) RY*( 4) H   5           s( 97.86%)p 0.02(  2.14%)
    42. (0.00000) RY*( 5) H   5           s( 16.61%)p 5.02( 83.39%)
    43. (0.00033) BD*( 1) C   1 - H   2  
                ( 39.85%)   0.6312* C   1 s( 25.00%)p 3.00( 74.95%)d 0.00(  0.05%)
                                           -0.0000 -0.5000 -0.0000 -0.0000 -0.0000
                                           -0.4998 -0.0000 -0.0000 -0.0000  0.4998
                                           -0.0000 -0.0000 -0.0000 -0.4998 -0.0000
                                           -0.0000 -0.0000  0.0133 -0.0133  0.0133
                                           -0.0000 -0.0000
                ( 60.15%)  -0.7756* H   2 s( 99.96%)p 0.00(  0.04%)
                                           -0.9998  0.0002 -0.0002  0.0113 -0.0113
                                            0.0113
    44. (0.00033) BD*( 1) C   1 - H   3  
                ( 39.85%)   0.6312* C   1 s( 25.00%)p 3.00( 74.95%)d 0.00(  0.05%)
                                           -0.0000 -0.5000 -0.0000 -0.0000 -0.0000
                                            0.4998 -0.0000 -0.0000 -0.0000 -0.4998
                                           -0.0000 -0.0000 -0.0000 -0.4998 -0.0000
                                           -0.0000 -0.0000  0.0133  0.0133 -0.0133
                                           -0.0000 -0.0000
                ( 60.15%)  -0.7756* H   3 s( 99.96%)p 0.00(  0.04%)
                                           -0.9998  0.0002 -0.0002 -0.0113  0.0113
                                            0.0113
    45. (0.00033) BD*( 1) C   1 - H   4  
                ( 39.85%)   0.6312* C   1 s( 25.00%)p 3.00( 74.95%)d 0.00(  0.05%)
                                           -0.0000 -0.5000 -0.0000 -0.0000 -0.0000
                                            0.4998 -0.0000 -0.0000 -0.0000  0.4998
                                           -0.0000 -0.0000 -0.0000  0.4998 -0.0000
                                           -0.0000 -0.0000 -0.0133 -0.0133 -0.0133
                                           -0.0000 -0.0000
                ( 60.15%)  -0.7756* H   4 s( 99.96%)p 0.00(  0.04%)
                                           -0.9998  0.0002 -0.0002 -0.0113 -0.0113
                                           -0.0113
    46. (0.00033) BD*( 1) C   1 - H   5  
                ( 39.85%)   0.6312* C   1 s( 25.00%)p 3.00( 74.95%)d 0.00(  0.05%)
                                           -0.0000 -0.5000 -0.0000 -0.0000 -0.0000
                                           -0.4998 -0.0000 -0.0000 -0.0000 -0.4998
                                           -0.0000 -0.0000 -0.0000  0.4998 -0.0000
                                           -0.0000 -0.0000 -0.0133  0.0133  0.0133
                                           -0.0000 -0.0000
                ( 60.15%)  -0.7756* H   5 s( 99.96%)p 0.00(  0.04%)
                                           -0.9998  0.0002 -0.0002  0.0113  0.0113
                                           -0.0113


 NHO Directionality and "Bond Bending" (deviations from line of nuclear centers)

         [Thresholds for printing:  angular deviation  >  1.0 degree]
                                    hybrid p-character > 25.0%
                                    orbital occupancy  >  0.10e

                                Line of Centers        Hybrid 1              Hybrid 2
                                ---------------  -------------------   ------------------
                NBO               Theta   Phi    Theta   Phi    Dev    Theta   Phi    Dev
 ========================================================================================
    None exceeding thresholds


 Second Order Perturbation Theory Analysis of Fock Matrix in NBO Basis

     Threshold for printing:   0.50 kcal/mol
                                                                              E(2)  E(j)-E(i) F(i,j)
         Donor NBO (i)                     Acceptor NBO (j)                 kcal/mol   a.u.    a.u. 
 ===================================================================================================

 within unit  1
   5. CR (   1) C   1                / 23. RY*(   1) H   2                    0.64   11.21    0.075
   5. CR (   1) C   1                / 28. RY*(   1) H   3                    0.64   11.21    0.075
   5. CR (   1) C   1                / 33. RY*(   1) H   4                    0.64   11.21    0.075
   5. CR (   1) C   1                / 38. RY*(   1) H   5                    0.64   11.21    0.075


 Natural Bond Orbitals (Summary):

                                                            Principal Delocalizations
           NBO                        Occupancy    Energy   (geminal,vicinal,remote)
 ====================================================================================
 Molecular unit  1  (CH4)
     1. BD (   1) C   1 - H   2          1.99937    -0.50518   
     2. BD (   1) C   1 - H   3          1.99937    -0.50518   
     3. BD (   1) C   1 - H   4          1.99937    -0.50518   
     4. BD (   1) C   1 - H   5          1.99937    -0.50518   
     5. CR (   1) C   1                  1.99948   -10.01086  23(v),28(v),33(v),38(v)
     6. RY*(   1) C   1                  0.00000     0.78486   
     7. RY*(   2) C   1                  0.00000     5.41535   
     8. RY*(   3) C   1                  0.00000    18.27409   
     9. RY*(   4) C   1                  0.00000     0.66000   
    10. RY*(   5) C   1                  0.00000     2.71180   
    11. RY*(   6) C   1                  0.00000     0.42010   
    12. RY*(   7) C   1                  0.00000     0.66000   
    13. RY*(   8) C   1                  0.00000     2.71180   
    14. RY*(   9) C   1                  0.00000     0.42010   
    15. RY*(  10) C   1                  0.00000     0.66000   
    16. RY*(  11) C   1                  0.00000     2.71180   
    17. RY*(  12) C   1                  0.00000     0.42010   
    18. RY*(  13) C   1                  0.00000     2.22797   
    19. RY*(  14) C   1                  0.00000     2.22797   
    20. RY*(  15) C   1                  0.00000     2.22797   
    21. RY*(  16) C   1                  0.00000     1.74010   
    22. RY*(  17) C   1                  0.00000     1.74010   
    23. RY*(   1) H   2                  0.00017     1.19758   
    24. RY*(   2) H   2                  0.00009     1.66217   
    25. RY*(   3) H   2                  0.00009     1.66217   
    26. RY*(   4) H   2                  0.00007     1.90668   
    27. RY*(   5) H   2                  0.00000     2.19158   
    28. RY*(   1) H   3                  0.00017     1.19758   
    29. RY*(   2) H   3                  0.00009     1.66217   
    30. RY*(   3) H   3                  0.00009     1.66217   
    31. RY*(   4) H   3                  0.00007     1.90668   
    32. RY*(   5) H   3                  0.00000     2.19158   
    33. RY*(   1) H   4                  0.00017     1.19758   
    34. RY*(   2) H   4                  0.00009     1.66217   
    35. RY*(   3) H   4                  0.00009     1.66217   
    36. RY*(   4) H   4                  0.00007     1.90668   
    37. RY*(   5) H   4                  0.00000     2.19158   
    38. RY*(   1) H   5                  0.00017     1.19758   
    39. RY*(   2) H   5                  0.00009     1.66217   
    40. RY*(   3) H   5                  0.00009     1.66217   
    41. RY*(   4) H   5                  0.00007     1.90668   
    42. RY*(   5) H   5                  0.00000     2.19158   
    43. BD*(   1) C   1 - H   2          0.00033     0.40458   
    44. BD*(   1) C   1 - H   3          0.00033     0.40458   
    45. BD*(   1) C   1 - H   4          0.00033     0.40458   
    46. BD*(   1) C   1 - H   5          0.00033     0.40458   
       -------------------------------
              Total Lewis    9.99698  ( 99.9698%)
        Valence non-Lewis    0.00131  (  0.0131%)
        Rydberg non-Lewis    0.00171  (  0.0171%)
       -------------------------------
            Total unit  1   10.00000  (100.0000%)
           Charge unit  1    0.00000


 NATURAL LOCALIZED MOLECULAR ORBITAL (NLMO) ANALYSIS:

 Maximum off-diagonal element of DM in NLMO basis: 5.14D-07 NIter=        17

 Hybridization/Polarization Analysis of NLMOs in NAO Basis:
 NLMO/Occupancy/Percent from Parent NBO/ Atomic Hybrid Contributions
 -------------------------------------------------------------------------------
     1. (2.00000)  99.9687%  BD ( 1) C   1 H   2      
                           60.140%  C    1 s( 24.09%)p 3.15( 75.85%)d 0.00(  0.05%)
                           39.835%  H    2 s( 99.96%)p 0.00(  0.04%)
     2. (2.00000)  99.9687%  BD ( 1) C   1 H   3      
                           60.140%  C    1 s( 24.09%)p 3.15( 75.85%)d 0.00(  0.05%)
                           39.835%  H    3 s( 99.96%)p 0.00(  0.04%)
     3. (2.00000)  99.9687%  BD ( 1) C   1 H   4      
                           60.140%  C    1 s( 24.09%)p 3.15( 75.85%)d 0.00(  0.05%)
                           39.835%  H    4 s( 99.96%)p 0.00(  0.04%)
     4. (2.00000)  99.9687%  BD ( 1) C   1 H   5      
                           60.140%  C    1 s( 24.09%)p 3.15( 75.85%)d 0.00(  0.05%)
                           39.835%  H    5 s( 99.96%)p 0.00(  0.04%)
     5. (2.00000)  99.9742%  CR ( 1) C   1            
                           99.974%  C    1 s(100.00%)p 0.00(  0.00%)d 0.00(  0.00%)

 Individual LMO bond orders greater than 0.002 in magnitude,
 with the overlap between the hybrids in the NLMO given:

 Atom I / Atom J / NLMO / Bond Order / Hybrid Overlap /
    1       2       1     0.7967046       0.7975725
    1       3       2     0.7967046       0.7975725
    1       4       3     0.7967046       0.7975725
    1       5       4     0.7967046       0.7975725


 Atom-Atom Net Linear NLMO/NPA Bond Orders:                                    

     Atom    1       2       3       4       5
     ---- ------  ------  ------  ------  ------
   1.  C  0.0000  0.7971  0.7971  0.7971  0.7971
   2.  H  0.7971  0.0000  0.0008  0.0008  0.0008
   3.  H  0.7971  0.0008  0.0000  0.0008  0.0008
   4.  H  0.7971  0.0008  0.0008  0.0000  0.0008
   5.  H  0.7971  0.0008  0.0008  0.0008  0.0000


 Linear NLMO/NPA Bond Orders, Totals by Atom:                                  

     Atom    1
     ---- ------
   1.  C  3.1883
   2.  H  0.7994
   3.  H  0.7994
   4.  H  0.7994
   5.  H  0.7994
 Sorting of NBOs:                    5    4    3    1    2   44   43   45   46   11
 Sorting of NBOs:                   14   17   15   12    9    6   38   33   28   23
 Sorting of NBOs:                   34   29   24   39   30   40   25   35   21   22
 Sorting of NBOs:                   41   36   31   26   27   32   37   42   20   19
 Sorting of NBOs:                   18   10   16   13    7    8
 Reordering of NBOs for storage:     5    4    3    1    2   44   43   45   46   11
 Reordering of NBOs for storage:    14   17   15   12    9    6   38   33   28   23
 Reordering of NBOs for storage:    34   29   24   39   30   40   25   35   21   22
 Reordering of NBOs for storage:    41   36   31   26   27   32   37   42   20   19
 Reordering of NBOs for storage:    18   10   16   13    7    8
 Labels of output orbitals:  CR  BD  BD  BD  BD  BD* BD* BD* BD* RY* RY* RY* RY* RY* RY* RY* RY* RY* RY* RY* 
 Labels of output orbitals:  RY* RY* RY* RY* RY* RY* RY* RY* RY* RY* RY* RY* RY* RY* RY* RY* RY* RY* RY* RY* 
 Labels of output orbitals:  RY* RY* RY* RY* RY* RY* 
 GSVD:  LWork=       -2009 too small for GESVD, short by        9020 words or        9020 for optimal perf.
 Leave Link  607 at Tue Jun 30 11:52:31 2026, MaxMem=   104857600 cpu:               0.6 elap:               0.6
 (Enter /sw/apps/software/noarch/Gaussian/g16.B01/g16/l701.exe)
 ... and contract with generalized density number  0.
 Compute integral first derivatives.
 Leave Link  701 at Tue Jun 30 11:52:31 2026, MaxMem=   104857600 cpu:               0.1 elap:               0.1
 (Enter /sw/apps/software/noarch/Gaussian/g16.B01/g16/l702.exe)
 L702 exits ... SP integral derivatives will be done elsewhere.
 Leave Link  702 at Tue Jun 30 11:52:31 2026, MaxMem=   104857600 cpu:               0.0 elap:               0.0
 (Enter /sw/apps/software/noarch/Gaussian/g16.B01/g16/l703.exe)
 Integral derivatives from FoFJK, PRISM(SPDF).
 Compute integral first derivatives, UseDBF=F ICtDFT=           0.
 Calling FoFJK, ICntrl=      2127 FMM=F ISym2X=1 I1Cent= 0 IOpClX= 0 NMat=1 NMatS=1 NMatT=0.
 FoFJK:  IHMeth= 1 ICntrl=    2127 DoSepK=F KAlg= 0 I1Cent=           0 FoldK=F
 IRaf=         0 NMat=       1 IRICut=       1 DoRegI=T DoRafI=F ISym2E= 1 IDoP0=0 IntGTp=1.
 FoFCou: FMM=F IPFlag=           0 FMFlag=      100000 FMFlg1=         800
         NFxFlg=           0 DoJE=F BraDBF=F KetDBF=F FulRan=T
         wScrn=  0.000000 ICntrl=      2127 IOpCl=  0 I1Cent=           0 NGrid=           0
         NMat0=    1 NMatS0=      1 NMatT0=    0 NMatD0=    1 NMtDS0=    0 NMtDT0=    0
 Petite list used in FoFCou.
 Leave Link  703 at Tue Jun 30 11:52:31 2026, MaxMem=   104857600 cpu:               0.4 elap:               0.4
 (Enter /sw/apps/software/noarch/Gaussian/g16.B01/g16/l716.exe)
 Dipole        = 2.22044605D-16 0.00000000D+00-2.22044605D-16
 ***** Axes restored to original set *****
 -------------------------------------------------------------------
 Center     Atomic                   Forces (Hartrees/Bohr)
 Number     Number              X              Y              Z
 -------------------------------------------------------------------
      1        6           0.000000000   -0.000000000    0.000000000
      2        1          -0.000000001    0.000000000    0.001268083
      3        1           0.001195561    0.000000000   -0.000422694
      4        1          -0.000597780    0.001035386   -0.000422695
      5        1          -0.000597780   -0.001035386   -0.000422695
 -------------------------------------------------------------------
 Cartesian Forces:  Max     0.001268083 RMS     0.000654835
 Leave Link  716 at Tue Jun 30 11:52:31 2026, MaxMem=   104857600 cpu:               0.0 elap:               0.0
 (Enter /sw/apps/software/noarch/Gaussian/g16.B01/g16/l103.exe)

 GradGradGradGradGradGradGradGradGradGradGradGradGradGradGradGradGradGrad
 Berny optimization.
 FormGI is forming the generalized inverse of G from B-inverse, IUseBI=4.
 Internal  Forces:  Max     0.001268083 RMS     0.000677819
 Search for a local minimum.
 Step number   1 out of a maximum of   24
 All quantities printed in internal units (Hartrees-Bohrs-Radians)
 RMS Force = .67782D-03 SwitMx=.10000D-02 MixMth= 2
 Mixed Optimization -- En-DIIS/RFO-DIIS
 Second derivative matrix not updated -- first step.
 The second derivative matrix:
                          R1        R2        R3        R4        A1
           R1           0.34928
           R2           0.00000   0.34928
           R3           0.00000   0.00000   0.34928
           R4           0.00000   0.00000   0.00000   0.34928
           A1           0.00000   0.00000   0.00000   0.00000   0.16000
           A2           0.00000   0.00000   0.00000   0.00000   0.00000
           A3           0.00000   0.00000   0.00000   0.00000   0.00000
           A4           0.00000   0.00000   0.00000   0.00000   0.00000
           A5           0.00000   0.00000   0.00000   0.00000   0.00000
           A6           0.00000   0.00000   0.00000   0.00000   0.00000
           D1           0.00000   0.00000   0.00000   0.00000   0.00000
           D2           0.00000   0.00000   0.00000   0.00000   0.00000
           D3           0.00000   0.00000   0.00000   0.00000   0.00000
           D4           0.00000   0.00000   0.00000   0.00000   0.00000
                          A2        A3        A4        A5        A6
           A2           0.16000
           A3           0.00000   0.16000
           A4           0.00000   0.00000   0.16000
           A5           0.00000   0.00000   0.00000   0.16000
           A6           0.00000   0.00000   0.00000   0.00000   0.16000
           D1           0.00000   0.00000   0.00000   0.00000   0.00000
           D2           0.00000   0.00000   0.00000   0.00000   0.00000
           D3           0.00000   0.00000   0.00000   0.00000   0.00000
           D4           0.00000   0.00000   0.00000   0.00000   0.00000
                          D1        D2        D3        D4
           D1           0.00248
           D2           0.00000   0.00248
           D3           0.00000   0.00000   0.00248
           D4           0.00000   0.00000   0.00000   0.00248
 ITU=  0
     Eigenvalues ---    0.05095   0.05727   0.08649   0.16000   0.16000
     Eigenvalues ---    0.34928   0.34928   0.34928   0.34928
 RFO step:  Lambda=-1.84151902D-05 EMin= 5.09480953D-02
 Linear search not attempted -- first point.
 Iteration  1 RMS(Cart)=  0.00194049 RMS(Int)=  0.00000000
 Iteration  2 RMS(Cart)=  0.00000000 RMS(Int)=  0.00000000
 ITry= 1 IFail=0 DXMaxC= 3.63D-03 DCOld= 1.00D+10 DXMaxT= 3.00D-01 DXLimC= 3.00D+00 Rises=F
 ClnCor:  largest displacement from symmetrization is 1.54D-14 for atom     5.
 Variable       Old X    -DE/DX   Delta X   Delta X   Delta X     New X
                                 (Linear)    (Quad)   (Total)
    R1        2.05791   0.00127   0.00000   0.00363   0.00363   2.06154
    R2        2.05791   0.00127   0.00000   0.00363   0.00363   2.06154
    R3        2.05791   0.00127   0.00000   0.00363   0.00363   2.06154
    R4        2.05791   0.00127   0.00000   0.00363   0.00363   2.06154
    A1        1.91063  -0.00000   0.00000   0.00000   0.00000   1.91063
    A2        1.91063   0.00000   0.00000   0.00000   0.00000   1.91063
    A3        1.91063   0.00000   0.00000   0.00000   0.00000   1.91063
    A4        1.91063   0.00000   0.00000  -0.00000   0.00000   1.91063
    A5        1.91063   0.00000   0.00000   0.00000  -0.00000   1.91063
    A6        1.91063  -0.00000   0.00000  -0.00000   0.00000   1.91063
    D1        2.09440   0.00000   0.00000   0.00000   0.00000   2.09440
    D2       -2.09440  -0.00000   0.00000  -0.00000   0.00000  -2.09440
    D3        2.09440  -0.00000   0.00000  -0.00000   0.00000   2.09440
    D4       -2.09440   0.00000   0.00000   0.00000   0.00000  -2.09440
         Item               Value     Threshold  Converged?
 Maximum Force            0.001268     0.000450     NO 
 RMS     Force            0.000678     0.000300     NO 
 Maximum Displacement     0.003630     0.001800     NO 
 RMS     Displacement     0.001940     0.001200     NO 
 Predicted change in Energy=-9.207595D-06
 Lowest energy point so far.  Saving SCF results.
 GradGradGradGradGradGradGradGradGradGradGradGradGradGradGradGradGradGrad

 Leave Link  103 at Tue Jun 30 11:52:31 2026, MaxMem=   104857600 cpu:               0.0 elap:               0.0
 (Enter /sw/apps/software/noarch/Gaussian/g16.B01/g16/l202.exe)
                          Input orientation:                          
 ---------------------------------------------------------------------
 Center     Atomic      Atomic             Coordinates (Angstroms)
 Number     Number       Type             X           Y           Z
 ---------------------------------------------------------------------
      1          6           0       -0.000000   -0.000000   -0.000000
      2          1           0       -0.000001    0.000000    1.090921
      3          1           0        1.028530    0.000000   -0.363640
      4          1           0       -0.514265    0.890733   -0.363641
      5          1           0       -0.514265   -0.890733   -0.363641
 ---------------------------------------------------------------------
                    Distance matrix (angstroms):
                    1          2          3          4          5
     1  C    0.000000
     2  H    1.090921   0.000000
     3  H    1.090921   1.781467   0.000000
     4  H    1.090921   1.781467   1.781467   0.000000
     5  H    1.090921   1.781467   1.781467   1.781467   0.000000
 Stoichiometry    CH4
 Framework group  TD[O(C),4C3(H)]
 Deg. of freedom     1
 Full point group                 TD      NOp  24
 Omega: Change in point group or standard orientation.

 Old FWG=T    [O(C1),4C3(H1)]
 New FWG=TD   [O(C1),4C3(H1)]
 RotChk:  IX=0 Diff= 2.00D+00
 Largest Abelian subgroup         D2      NOp   4
 Largest concise Abelian subgroup D2      NOp   4
                         Standard orientation:                         
 ---------------------------------------------------------------------
 Center     Atomic      Atomic             Coordinates (Angstroms)
 Number     Number       Type             X           Y           Z
 ---------------------------------------------------------------------
      1          6           0        0.000000    0.000000    0.000000
      2          1           0        0.629844    0.629844    0.629844
      3          1           0       -0.629844   -0.629844    0.629844
      4          1           0        0.629844   -0.629844   -0.629844
      5          1           0       -0.629844    0.629844   -0.629844
 ---------------------------------------------------------------------
 Rotational constants (GHZ):         158.0071183         158.0071183         158.0071183
 Leave Link  202 at Tue Jun 30 11:52:31 2026, MaxMem=   104857600 cpu:               0.0 elap:               0.0
 (Enter /sw/apps/software/noarch/Gaussian/g16.B01/g16/l301.exe)
 Standard basis: 6-311+G(d,p) (5D, 7F)
 Ernie: Thresh=  0.10000D-02 Tol=  0.10000D-05 Strict=F.
 There are    14 symmetry adapted cartesian basis functions of A   symmetry.
 There are    11 symmetry adapted cartesian basis functions of B1  symmetry.
 There are    11 symmetry adapted cartesian basis functions of B2  symmetry.
 There are    11 symmetry adapted cartesian basis functions of B3  symmetry.
 There are    13 symmetry adapted basis functions of A   symmetry.
 There are    11 symmetry adapted basis functions of B1  symmetry.
 There are    11 symmetry adapted basis functions of B2  symmetry.
 There are    11 symmetry adapted basis functions of B3  symmetry.
    46 basis functions,    68 primitive gaussians,    47 cartesian basis functions
     5 alpha electrons        5 beta electrons
       nuclear repulsion energy        13.4240455019 Hartrees.
 IExCor=  402 DFT=T Ex+Corr=B3LYP ExCW=0 ScaHFX=  0.200000
 ScaDFX=  0.800000  0.720000  1.000000  0.810000 ScalE2=  1.000000  1.000000
 IRadAn=      5 IRanWt=     -1 IRanGd=            0 ICorTp=0 IEmpDi=  4
 NAtoms=    5 NActive=    5 NUniq=    2 SFac= 4.00D+00 NAtFMM=   60 NAOKFM=F Big=F
 Integral buffers will be    131072 words long.
 Raffenetti 2 integral format.
 Two-electron integral symmetry is turned on.
 Leave Link  301 at Tue Jun 30 11:52:31 2026, MaxMem=   104857600 cpu:               0.1 elap:               0.1
 (Enter /sw/apps/software/noarch/Gaussian/g16.B01/g16/l302.exe)
 NPDir=0 NMtPBC=     1 NCelOv=     1 NCel=       1 NClECP=     1 NCelD=      1
         NCelK=      1 NCelE2=     1 NClLst=     1 CellRange=     0.0.
 One-electron integrals computed using PRISM.
 One-electron integral symmetry used in STVInt
 NBasis=    46 RedAO= T EigKep=  9.14D-03  NBF=    13    11    11    11
 NBsUse=    46 1.00D-06 EigRej= -1.00D+00 NBFU=    13    11    11    11
 Precomputing XC quadrature grid using
 IXCGrd= 4 IRadAn=           5 IRanWt=          -1 IRanGd=           0 AccXCQ= 0.00D+00.
 Generated NRdTot=       0 NPtTot=           0 NUsed=           0 NTot=          32
 NSgBfM=    47    47    47    47    47 MxSgAt=     5 MxSgA2=     5.
 Leave Link  302 at Tue Jun 30 11:52:32 2026, MaxMem=   104857600 cpu:               0.1 elap:               0.1
 (Enter /sw/apps/software/noarch/Gaussian/g16.B01/g16/l303.exe)
 DipDrv:  MaxL=1.
 Leave Link  303 at Tue Jun 30 11:52:32 2026, MaxMem=   104857600 cpu:               0.0 elap:               0.0
 (Enter /sw/apps/software/noarch/Gaussian/g16.B01/g16/l401.exe)
 Initial guess from the checkpoint file:  "NBO.chk"
 B after Tr=    -0.000000   -0.000000    0.000000
         Rot=    0.707107    0.000000   -0.000000   -0.707107 Ang= -90.00 deg.
 Guess basis will be translated and rotated to current coordinates.
 JPrj=2 DoOrth=T DoCkMO=T.
 Initial guess orbital symmetries:
       Occupied  (A1) (?A) (?A) (?A) (?A)
       Virtual   (?A) (?A) (?A) (?A) (T2) (T2) (T2) (T2) (T2) (T2)
                 (A1) (?A) (?A) (?A) (?A) (E) (E) (E) (E) (E) (E)
                 (E) (E) (E) (E) (?A) (?A) (?A) (?A) (?A) (?A)
                 (?A) (?A) (T2) (T2) (T2) (T2) (T2) (T2) (A1) (A1)
 Leave Link  401 at Tue Jun 30 11:52:32 2026, MaxMem=   104857600 cpu:               0.1 elap:               0.1
 (Enter /sw/apps/software/noarch/Gaussian/g16.B01/g16/l502.exe)
 Keep R1 ints in memory in symmetry-blocked form, NReq=1457966.
 FoFCou: FMM=F IPFlag=           0 FMFlag=           0 FMFlg1=           0
         NFxFlg=           0 DoJE=F BraDBF=F KetDBF=F FulRan=T
         wScrn=  0.000000 ICntrl=       600 IOpCl=  0 I1Cent=           0 NGrid=           0
         NMat0=    1 NMatS0=   1081 NMatT0=    0 NMatD0=    1 NMtDS0=    0 NMtDT0=    0
 Petite list used in FoFCou.
 Closed shell SCF:
 Using DIIS extrapolation, IDIIS=  1040.
 NGot=   104857600 LenX=   104701391 LenY=   104698741
 Requested convergence on RMS density matrix=1.00D-08 within 128 cycles.
 Requested convergence on MAX density matrix=1.00D-06.
 Requested convergence on             energy=1.00D-06.
 No special actions if energy rises.
 An orbital has undefined symmetry, so N**3 symmetry is turned off.

 Cycle   1  Pass 1  IDiag  1:
 E= -40.5241595959925    
 DIIS: error= 4.54D-02 at cycle   1 NSaved=   1.
 NSaved= 1 IEnMin= 1 EnMin= -40.5241595959925     IErMin= 1 ErrMin= 4.54D-02
 ErrMax= 4.54D-02  0.00D+00 EMaxC= 1.00D-01 BMatC= 3.92D-02 BMatP= 3.92D-02
 IDIUse=3 WtCom= 5.46D-01 WtEn= 4.54D-01
 Coeff-Com:  0.100D+01
 Coeff-En:   0.100D+01
 Coeff:      0.100D+01
 Gap=     0.906 Goal=   None    Shift=    0.000
 GapD=    0.906 DampG=2.000 DampE=0.500 DampFc=1.0000 IDamp=-1.
 RMSDP=1.90D-03 MaxDP=4.39D-02              OVMax= 2.53D-02

 Cycle   2  Pass 1  IDiag  1:
 E= -40.5338497111361     Delta-E=       -0.009690115144 Rises=F Damp=F
 DIIS: error= 1.60D-03 at cycle   2 NSaved=   2.
 NSaved= 2 IEnMin= 2 EnMin= -40.5338497111361     IErMin= 2 ErrMin= 1.60D-03
 ErrMax= 1.60D-03  0.00D+00 EMaxC= 1.00D-01 BMatC= 6.88D-05 BMatP= 3.92D-02
 IDIUse=3 WtCom= 9.84D-01 WtEn= 1.60D-02
 Coeff-Com: -0.730D-02 0.101D+01
 Coeff-En:   0.000D+00 0.100D+01
 Coeff:     -0.719D-02 0.101D+01
 Gap=     0.407 Goal=   None    Shift=    0.000
 RMSDP=1.96D-04 MaxDP=1.97D-03 DE=-9.69D-03 OVMax= 5.91D-03

 Cycle   3  Pass 1  IDiag  1:
 E= -40.5338316918273     Delta-E=        0.000018019309 Rises=F Damp=F
 DIIS: error= 1.93D-03 at cycle   3 NSaved=   3.
 NSaved= 3 IEnMin= 2 EnMin= -40.5338497111361     IErMin= 2 ErrMin= 1.60D-03
 ErrMax= 1.93D-03  0.00D+00 EMaxC= 1.00D-01 BMatC= 9.77D-05 BMatP= 6.88D-05
 IDIUse=3 WtCom= 1.85D-01 WtEn= 8.15D-01
 Coeff-Com: -0.573D-02 0.554D+00 0.452D+00
 Coeff-En:   0.000D+00 0.552D+00 0.448D+00
 Coeff:     -0.106D-02 0.552D+00 0.449D+00
 Gap=     0.405 Goal=   None    Shift=    0.000
 RMSDP=1.12D-04 MaxDP=2.38D-03 DE= 1.80D-05 OVMax= 2.90D-03

 Cycle   4  Pass 1  IDiag  1:
 E= -40.5339276168671     Delta-E=       -0.000095925040 Rises=F Damp=F
 DIIS: error= 3.13D-05 at cycle   4 NSaved=   4.
 NSaved= 4 IEnMin= 4 EnMin= -40.5339276168671     IErMin= 4 ErrMin= 3.13D-05
 ErrMax= 3.13D-05  0.00D+00 EMaxC= 1.00D-01 BMatC= 2.40D-08 BMatP= 6.88D-05
 IDIUse=1 WtCom= 1.00D+00 WtEn= 0.00D+00
 Coeff-Com:  0.727D-04-0.263D-01-0.271D-01 0.105D+01
 Coeff:      0.727D-04-0.263D-01-0.271D-01 0.105D+01
 Gap=     0.405 Goal=   None    Shift=    0.000
 RMSDP=4.21D-06 MaxDP=1.16D-04 DE=-9.59D-05 OVMax= 9.44D-05

 Cycle   5  Pass 1  IDiag  1:
 E= -40.5339276437598     Delta-E=       -0.000000026893 Rises=F Damp=F
 DIIS: error= 1.61D-06 at cycle   5 NSaved=   5.
 NSaved= 5 IEnMin= 5 EnMin= -40.5339276437598     IErMin= 5 ErrMin= 1.61D-06
 ErrMax= 1.61D-06  0.00D+00 EMaxC= 1.00D-01 BMatC= 8.65D-11 BMatP= 2.40D-08
 IDIUse=1 WtCom= 1.00D+00 WtEn= 0.00D+00
 Coeff-Com:  0.160D-04-0.204D-02-0.109D-02 0.240D-01 0.979D+00
 Coeff:      0.160D-04-0.204D-02-0.109D-02 0.240D-01 0.979D+00
 Gap=     0.405 Goal=   None    Shift=    0.000
 RMSDP=2.74D-07 MaxDP=2.00D-06 DE=-2.69D-08 OVMax= 4.56D-06

 Cycle   6  Pass 1  IDiag  1:
 E= -40.5339276438777     Delta-E=       -0.000000000118 Rises=F Damp=F
 DIIS: error= 1.52D-07 at cycle   6 NSaved=   6.
 NSaved= 6 IEnMin= 6 EnMin= -40.5339276438777     IErMin= 6 ErrMin= 1.52D-07
 ErrMax= 1.52D-07  0.00D+00 EMaxC= 1.00D-01 BMatC= 4.89D-13 BMatP= 8.65D-11
 IDIUse=1 WtCom= 1.00D+00 WtEn= 0.00D+00
 Coeff-Com: -0.117D-05 0.181D-03 0.634D-04-0.391D-02-0.629D-01 0.107D+01
 Coeff:     -0.117D-05 0.181D-03 0.634D-04-0.391D-02-0.629D-01 0.107D+01
 Gap=     0.405 Goal=   None    Shift=    0.000
 RMSDP=2.73D-08 MaxDP=3.72D-07 DE=-1.18D-10 OVMax= 3.74D-07

 Cycle   7  Pass 1  IDiag  1:
 E= -40.5339276438787     Delta-E=       -0.000000000001 Rises=F Damp=F
 DIIS: error= 1.17D-08 at cycle   7 NSaved=   7.
 NSaved= 7 IEnMin= 7 EnMin= -40.5339276438787     IErMin= 7 ErrMin= 1.17D-08
 ErrMax= 1.17D-08  0.00D+00 EMaxC= 1.00D-01 BMatC= 2.86D-15 BMatP= 4.89D-13
 IDIUse=1 WtCom= 1.00D+00 WtEn= 0.00D+00
 Coeff-Com: -0.431D-07 0.599D-05-0.926D-06-0.111D-03-0.999D-03 0.765D-02
 Coeff-Com:  0.993D+00
 Coeff:     -0.431D-07 0.599D-05-0.926D-06-0.111D-03-0.999D-03 0.765D-02
 Coeff:      0.993D+00
 Gap=     0.405 Goal=   None    Shift=    0.000
 RMSDP=7.76D-10 MaxDP=1.32D-08 DE=-9.45D-13 OVMax= 1.82D-08

 SCF Done:  E(RB3LYP) =  -40.5339276439     A.U. after    7 cycles
            NFock=  7  Conv=0.78D-09     -V/T= 2.0063
 KE= 4.027868332792D+01 PE=-1.200973991290D+02 EE= 2.586074265531D+01
 Leave Link  502 at Tue Jun 30 11:52:33 2026, MaxMem=   104857600 cpu:               1.1 elap:               1.2
 (Enter /sw/apps/software/noarch/Gaussian/g16.B01/g16/l701.exe)
 ... and contract with generalized density number  0.
 Compute integral first derivatives.
 Leave Link  701 at Tue Jun 30 11:52:33 2026, MaxMem=   104857600 cpu:               0.1 elap:               0.1
 (Enter /sw/apps/software/noarch/Gaussian/g16.B01/g16/l702.exe)
 L702 exits ... SP integral derivatives will be done elsewhere.
 Leave Link  702 at Tue Jun 30 11:52:33 2026, MaxMem=   104857600 cpu:               0.0 elap:               0.0
 (Enter /sw/apps/software/noarch/Gaussian/g16.B01/g16/l703.exe)
 Integral derivatives from FoFJK, PRISM(SPDF).
 Compute integral first derivatives, UseDBF=F ICtDFT=           0.
 Calling FoFJK, ICntrl=      2127 FMM=F ISym2X=1 I1Cent= 0 IOpClX= 0 NMat=1 NMatS=1 NMatT=0.
 FoFJK:  IHMeth= 1 ICntrl=    2127 DoSepK=F KAlg= 0 I1Cent=           0 FoldK=F
 IRaf=         0 NMat=       1 IRICut=       1 DoRegI=T DoRafI=F ISym2E= 1 IDoP0=0 IntGTp=1.
 FoFCou: FMM=F IPFlag=           0 FMFlag=      100000 FMFlg1=         800
         NFxFlg=           0 DoJE=F BraDBF=F KetDBF=F FulRan=T
         wScrn=  0.000000 ICntrl=      2127 IOpCl=  0 I1Cent=           0 NGrid=           0
         NMat0=    1 NMatS0=      1 NMatT0=    0 NMatD0=    1 NMtDS0=    0 NMtDT0=    0
 Petite list used in FoFCou.
 Leave Link  703 at Tue Jun 30 11:52:34 2026, MaxMem=   104857600 cpu:               0.4 elap:               0.4
 (Enter /sw/apps/software/noarch/Gaussian/g16.B01/g16/l716.exe)
 Dipole        = 4.44089210D-16 2.22044605D-16-2.22044605D-16
 ***** Axes restored to original set *****
 -------------------------------------------------------------------
 Center     Atomic                   Forces (Hartrees/Bohr)
 Number     Number              X              Y              Z
 -------------------------------------------------------------------
      1        6           0.000000000   -0.000000000    0.000000000
      2        1           0.000000000   -0.000000000   -0.000004643
      3        1          -0.000004377   -0.000000000    0.000001548
      4        1           0.000002189   -0.000003791    0.000001548
      5        1           0.000002189    0.000003791    0.000001548
 -------------------------------------------------------------------
 Cartesian Forces:  Max     0.000004643 RMS     0.000002397
 Leave Link  716 at Tue Jun 30 11:52:34 2026, MaxMem=   104857600 cpu:               0.0 elap:               0.0
 (Enter /sw/apps/software/noarch/Gaussian/g16.B01/g16/l103.exe)

 GradGradGradGradGradGradGradGradGradGradGradGradGradGradGradGradGradGrad
 Berny optimization.
 Using GEDIIS/GDIIS optimizer.
 FormGI is forming the generalized inverse of G from B-inverse, IUseBI=4.
 Internal  Forces:  Max     0.000004643 RMS     0.000002482
 Search for a local minimum.
 Step number   2 out of a maximum of   24
 All quantities printed in internal units (Hartrees-Bohrs-Radians)
 RMS Force = .24815D-05 SwitMx=.10000D-02 MixMth= 2
 Mixed Optimization -- En-DIIS/RFO-DIIS
 Swapping is turned off.
 Update second derivatives using D2CorX and points    1    2
 DE= -9.16D-06 DEPred=-9.21D-06 R= 9.95D-01
 TightC=F SS=  1.41D+00  RLast= 7.26D-03 DXNew= 5.0454D-01 2.1782D-02
 Trust test= 9.95D-01 RLast= 7.26D-03 DXMaxT set to 3.00D-01
 The second derivative matrix:
                          R1        R2        R3        R4        A1
           R1           0.34961
           R2           0.00032   0.34961
           R3           0.00032   0.00032   0.34961
           R4           0.00032   0.00032   0.00032   0.34961
           A1          -0.00000  -0.00000  -0.00000  -0.00000   0.16000
           A2          -0.00000  -0.00000  -0.00000  -0.00000   0.00000
           A3           0.00000   0.00000   0.00000   0.00000  -0.00000
           A4          -0.00000  -0.00000  -0.00000  -0.00000   0.00000
           A5           0.00000   0.00000   0.00000   0.00000  -0.00000
           A6          -0.00000  -0.00000  -0.00000  -0.00000   0.00000
           D1          -0.00000  -0.00000  -0.00000  -0.00000   0.00000
           D2          -0.00000  -0.00000  -0.00000  -0.00000   0.00000
           D3          -0.00000  -0.00000  -0.00000  -0.00000   0.00000
           D4           0.00000   0.00000   0.00000   0.00000  -0.00000
                          A2        A3        A4        A5        A6
           A2           0.16000
           A3          -0.00000   0.16000
           A4           0.00000  -0.00000   0.16000
           A5          -0.00000   0.00000  -0.00000   0.16000
           A6          -0.00000  -0.00000  -0.00000   0.00000   0.16000
           D1           0.00000  -0.00000   0.00000  -0.00000  -0.00000
           D2           0.00000  -0.00000   0.00000  -0.00000  -0.00000
           D3           0.00000  -0.00000   0.00000  -0.00000  -0.00000
           D4          -0.00000   0.00000  -0.00000   0.00000   0.00000
                          D1        D2        D3        D4
           D1           0.00248
           D2           0.00000   0.00248
           D3           0.00000   0.00000   0.00248
           D4          -0.00000  -0.00000  -0.00000   0.00248
 ITU=  1  0
     Eigenvalues ---    0.05095   0.05727   0.08649   0.16000   0.16000
     Eigenvalues ---    0.34928   0.34928   0.34928   0.35058
 En-DIIS/RFO-DIIS/Sim-DIIS IScMMF=       -3 using points:     2    1
 RFO step:  Lambda= 0.00000000D+00.
 NNeg= 0 NGDIIS= 2 SimSw=  2.50D-03 Rises=F DC= -9.16D-06 SmlDif=  1.00D-05
 NRisDI= 0 DoIntr=F SqrtH=F CThrHd= 10.0 CDAdj=  3.0
 RMS Error=  0.7078349368D-05 NUsed= 2 OKEnD=F EnDIS=F
 InvSVX:  RCond= 5.93D-05 Info=           0 Equed=N FErr=  8.92D-16 BErr=  6.93D-17
 DidBck=F Rises=F RFO-DIIS coefs:    0.99635    0.00365
 Iteration  1 RMS(Cart)=  0.00000708 RMS(Int)=  0.00000000
 Iteration  2 RMS(Cart)=  0.00000000 RMS(Int)=  0.00000000
 ITry= 1 IFail=0 DXMaxC= 1.32D-05 DCOld= 1.00D+10 DXMaxT= 3.00D-01 DXLimC= 3.00D+00 Rises=F
 ClnCor:  largest displacement from symmetrization is 8.75D-15 for atom     5.
 Variable       Old X    -DE/DX   Delta X   Delta X   Delta X     New X
                                 (Linear)    (Quad)   (Total)
    R1        2.06154  -0.00000  -0.00001  -0.00000  -0.00001   2.06153
    R2        2.06154  -0.00000  -0.00001  -0.00000  -0.00001   2.06153
    R3        2.06154  -0.00000  -0.00001   0.00000  -0.00001   2.06153
    R4        2.06154  -0.00000  -0.00001  -0.00000  -0.00001   2.06153
    A1        1.91063   0.00000   0.00000   0.00000   0.00000   1.91063
    A2        1.91063   0.00000   0.00000   0.00000   0.00000   1.91063
    A3        1.91063  -0.00000   0.00000  -0.00000  -0.00000   1.91063
    A4        1.91063   0.00000   0.00000   0.00000   0.00000   1.91063
    A5        1.91063   0.00000   0.00000   0.00000  -0.00000   1.91063
    A6        1.91063  -0.00000   0.00000  -0.00000   0.00000   1.91063
    D1        2.09440   0.00000   0.00000   0.00000   0.00000   2.09440
    D2       -2.09440  -0.00000   0.00000  -0.00000   0.00000  -2.09440
    D3        2.09440  -0.00000   0.00000  -0.00000   0.00000   2.09440
    D4       -2.09440   0.00000   0.00000   0.00000   0.00000  -2.09440
         Item               Value     Threshold  Converged?
 Maximum Force            0.000005     0.000450     YES
 RMS     Force            0.000002     0.000300     YES
 Maximum Displacement     0.000013     0.001800     YES
 RMS     Displacement     0.000007     0.001200     YES
 Predicted change in Energy=-1.229565D-10
 Optimization completed.
    -- Stationary point found.
                           ----------------------------
                           !   Optimized Parameters   !
                           ! (Angstroms and Degrees)  !
 --------------------------                            --------------------------
 ! Name  Definition              Value          Derivative Info.                !
 --------------------------------------------------------------------------------
 ! R1    R(1,2)                  1.0909         -DE/DX =    0.0                 !
 ! R2    R(1,3)                  1.0909         -DE/DX =    0.0                 !
 ! R3    R(1,4)                  1.0909         -DE/DX =    0.0                 !
 ! R4    R(1,5)                  1.0909         -DE/DX =    0.0                 !
 ! A1    A(2,1,3)              109.4712         -DE/DX =    0.0                 !
 ! A2    A(2,1,4)              109.4712         -DE/DX =    0.0                 !
 ! A3    A(2,1,5)              109.4712         -DE/DX =    0.0                 !
 ! A4    A(3,1,4)              109.4712         -DE/DX =    0.0                 !
 ! A5    A(3,1,5)              109.4712         -DE/DX =    0.0                 !
 ! A6    A(4,1,5)              109.4712         -DE/DX =    0.0                 !
 ! D1    D(2,1,4,3)            120.0            -DE/DX =    0.0                 !
 ! D2    D(2,1,5,3)           -120.0            -DE/DX =    0.0                 !
 ! D3    D(2,1,5,4)            120.0            -DE/DX =    0.0                 !
 ! D4    D(3,1,5,4)           -120.0            -DE/DX =    0.0                 !
 --------------------------------------------------------------------------------
 Lowest energy point so far.  Saving SCF results.
 Largest change from initial coordinates is atom    5       1.259 Angstoms.
 GradGradGradGradGradGradGradGradGradGradGradGradGradGradGradGradGradGrad

 Leave Link  103 at Tue Jun 30 11:52:34 2026, MaxMem=   104857600 cpu:               0.0 elap:               0.0
 (Enter /sw/apps/software/noarch/Gaussian/g16.B01/g16/l202.exe)
                          Input orientation:                          
 ---------------------------------------------------------------------
 Center     Atomic      Atomic             Coordinates (Angstroms)
 Number     Number       Type             X           Y           Z
 ---------------------------------------------------------------------
      1          6           0       -0.000000   -0.000000   -0.000000
      2          1           0       -0.000001    0.000000    1.090921
      3          1           0        1.028530    0.000000   -0.363640
      4          1           0       -0.514265    0.890733   -0.363641
      5          1           0       -0.514265   -0.890733   -0.363641
 ---------------------------------------------------------------------
                    Distance matrix (angstroms):
                    1          2          3          4          5
     1  C    0.000000
     2  H    1.090921   0.000000
     3  H    1.090921   1.781467   0.000000
     4  H    1.090921   1.781467   1.781467   0.000000
     5  H    1.090921   1.781467   1.781467   1.781467   0.000000
 Stoichiometry    CH4
 Framework group  TD[O(C),4C3(H)]
 Deg. of freedom     1
 Full point group                 TD      NOp  24
 RotChk:  IX=0 Diff= 2.55D-15
 Largest Abelian subgroup         D2      NOp   4
 Largest concise Abelian subgroup D2      NOp   4
                         Standard orientation:                         
 ---------------------------------------------------------------------
 Center     Atomic      Atomic             Coordinates (Angstroms)
 Number     Number       Type             X           Y           Z
 ---------------------------------------------------------------------
      1          6           0        0.000000    0.000000    0.000000
      2          1           0        0.629844    0.629844    0.629844
      3          1           0       -0.629844   -0.629844    0.629844
      4          1           0        0.629844   -0.629844   -0.629844
      5          1           0       -0.629844    0.629844   -0.629844
 ---------------------------------------------------------------------
 Rotational constants (GHZ):         158.0071183         158.0071183         158.0071183
 Leave Link  202 at Tue Jun 30 11:52:34 2026, MaxMem=   104857600 cpu:               0.0 elap:               0.0
 (Enter /sw/apps/software/noarch/Gaussian/g16.B01/g16/l601.exe)
 Copying SCF densities to generalized density rwf, IOpCl= 0 IROHF=0.

 **********************************************************************

            Population analysis using the SCF Density.

 **********************************************************************

 Orbital symmetries:
       Occupied  (A1) (A1) (T2) (T2) (T2)
       Virtual   (A1) (T2) (T2) (T2) (T2) (T2) (T2) (A1) (T2) (T2)
                 (T2) (T2) (T2) (T2) (A1) (A1) (E) (E) (T1) (T1)
                 (T1) (T2) (T2) (T2) (T2) (T2) (T2) (A1) (E) (E)
                 (T2) (T2) (T2) (T2) (T2) (T2) (A1) (T2) (T2) (T2)
                 (A1)
 The electronic state is 1-A1.
 Alpha  occ. eigenvalues --  -10.15312  -0.69661  -0.39538  -0.39538  -0.39538
 Alpha virt. eigenvalues --    0.00954   0.05713   0.05713   0.05713   0.14581
 Alpha virt. eigenvalues --    0.14581   0.14581   0.21063   0.40053   0.40053
 Alpha virt. eigenvalues --    0.40053   0.59492   0.59492   0.59492   0.60418
 Alpha virt. eigenvalues --    0.82387   0.96433   0.96433   1.45418   1.45418
 Alpha virt. eigenvalues --    1.45418   1.53271   1.53271   1.53271   1.90136
 Alpha virt. eigenvalues --    1.90136   1.90136   2.27703   2.31358   2.31358
 Alpha virt. eigenvalues --    2.47593   2.47593   2.47593   2.54337   2.54337
 Alpha virt. eigenvalues --    2.54337   2.87448   3.79072   3.79072   3.79072
 Alpha virt. eigenvalues --   24.01885
     Molecular Orbital Coefficients:
                           1         2         3         4         5
                        (A1)--O   (A1)--O   (T2)--O   (T2)--O   (T2)--O
     Eigenvalues --   -10.15312  -0.69661  -0.39538  -0.39538  -0.39538
   1 1   C  1S          0.56295  -0.10919   0.00000   0.00000   0.00000
   2        2S          0.46310  -0.16892   0.00000   0.00000   0.00000
   3        2PX         0.00000  -0.00000   0.05090   0.18948  -0.06068
   4        2PY        -0.00000  -0.00000   0.18739  -0.06670  -0.05109
   5        2PZ        -0.00000   0.00000   0.06685   0.04270   0.18943
   6        3S          0.01963   0.43956  -0.00000  -0.00000   0.00000
   7        3PX        -0.00000   0.00000   0.07208   0.26832  -0.08592
   8        3PY         0.00000   0.00000   0.26536  -0.09445  -0.07235
   9        3PZ         0.00000   0.00000   0.09466   0.06047   0.26824
  10        4S         -0.00667   0.27567   0.00000  -0.00000  -0.00000
  11        4PX        -0.00000  -0.00000   0.04941   0.18396  -0.05891
  12        4PY        -0.00000  -0.00000   0.18193  -0.06475  -0.04961
  13        4PZ        -0.00000   0.00000   0.06490   0.04146   0.18391
  14        5S         -0.00392   0.01921  -0.00000  -0.00000   0.00000
  15        5PX        -0.00000  -0.00000   0.00339   0.01263  -0.00405
  16        5PY        -0.00000  -0.00000   0.01249  -0.00445  -0.00341
  17        5PZ         0.00000   0.00000   0.00446   0.00285   0.01263
  18        6D 0       -0.00000  -0.00000   0.00000  -0.00000   0.00000
  19        6D+1        0.00000   0.00000   0.02169  -0.00772  -0.00591
  20        6D-1       -0.00000   0.00000   0.00589   0.02193  -0.00702
  21        6D+2       -0.00000   0.00000   0.00000  -0.00000  -0.00000
  22        6D-2        0.00000  -0.00000   0.00774   0.00494   0.02192
  23 2   H  1S          0.00032   0.08610   0.15604   0.08463   0.03971
  24        2S         -0.00353   0.10217   0.21792   0.11819   0.05546
  25        3S          0.00335   0.00313   0.10195   0.05529   0.02595
  26        4PX         0.00119  -0.00934  -0.01054   0.00463  -0.00739
  27        4PY         0.00119  -0.00934  -0.00182  -0.01174  -0.00677
  28        4PZ         0.00119  -0.00934  -0.00952  -0.00475   0.00859
  29 3   H  1S          0.00032   0.08610  -0.08767  -0.04095   0.15403
  30        2S         -0.00353   0.10217  -0.12244  -0.05719   0.21511
  31        3S          0.00335   0.00313  -0.05728  -0.02676   0.10063
  32        4PX        -0.00119   0.00934  -0.00450   0.00848   0.00974
  33        4PY        -0.00119   0.00934   0.00422  -0.00788   0.01035
  34        4PZ         0.00119  -0.00934   0.01202   0.00635  -0.00151
  35 4   H  1S          0.00032   0.08610  -0.10399   0.10917  -0.10177
  36        2S         -0.00353   0.10217  -0.14522   0.15246  -0.14213
  37        3S          0.00335   0.00313  -0.06794   0.07133  -0.06649
  38        4PX         0.00119  -0.00934   0.01244   0.00246   0.00512
  39        4PY        -0.00119   0.00934   0.00278   0.00539  -0.01226
  40        4PZ        -0.00119   0.00934  -0.00492   0.01237   0.00311
  41 5   H  1S          0.00032   0.08610   0.03562  -0.15284  -0.09197
  42        2S         -0.00353   0.10217   0.04974  -0.21345  -0.12844
  43        3S          0.00335   0.00313   0.02327  -0.09986  -0.06009
  44        4PX        -0.00119   0.00934   0.00640  -0.00140  -0.01200
  45        4PY         0.00119  -0.00934   0.00882   0.00925   0.00486
  46        4PZ        -0.00119   0.00934   0.00742  -0.01078   0.00397
                           6         7         8         9        10
                        (A1)--V   (T2)--V   (T2)--V   (T2)--V   (T2)--V
     Eigenvalues --     0.00954   0.05713   0.05713   0.05713   0.14581
   1 1   C  1S          0.04399  -0.00000   0.00000  -0.00000   0.00000
   2        2S          0.07239  -0.00000   0.00000  -0.00000   0.00000
   3        2PX         0.00000  -0.05497   0.02623  -0.04064   0.05002
   4        2PY        -0.00000  -0.02295  -0.06830  -0.01304  -0.01511
   5        2PZ        -0.00000   0.04258  -0.00295  -0.05949   0.14649
   6        3S         -0.22673   0.00000  -0.00000   0.00000   0.00000
   7        3PX         0.00000  -0.09464   0.04517  -0.06998   0.04266
   8        3PY        -0.00000  -0.03951  -0.11760  -0.02246  -0.01289
   9        3PZ         0.00000   0.07332  -0.00507  -0.10244   0.12495
  10        4S         -0.44789  -0.00000   0.00000   0.00000  -0.00000
  11        4PX         0.00000  -0.12601   0.06013  -0.09317   0.44133
  12        4PY        -0.00000  -0.05261  -0.15657  -0.02990  -0.13331
  13        4PZ         0.00000   0.09762  -0.00675  -0.13638   1.29248
  14        5S          2.06224   0.00000  -0.00000   0.00000  -0.00000
  15        5PX         0.00000   1.03596  -0.49437   0.76600   0.22848
  16        5PY         0.00000   0.43250   1.28720   0.24583  -0.06902
  17        5PZ         0.00000  -0.80256   0.05553   1.12124   0.66915
  18        6D 0       -0.00000   0.00000  -0.00000  -0.00000  -0.00000
  19        6D+1       -0.00000  -0.00774  -0.02305  -0.00440   0.00393
  20        6D-1        0.00000  -0.01855   0.00885  -0.01372  -0.01300
  21        6D+2        0.00000  -0.00000   0.00000   0.00000   0.00000
  22        6D-2        0.00000   0.01437  -0.00099  -0.02008  -0.03808
  23 2   H  1S         -0.00777  -0.01351  -0.01722  -0.04329  -0.04863
  24        2S          0.08300   0.00921   0.01173   0.02949  -0.14492
  25        3S         -0.33751  -0.16443  -0.20948  -0.52670  -1.76413
  26        4PX         0.00684   0.00435  -0.00261   0.00247  -0.01323
  27        4PY         0.00684   0.00164   0.00540   0.00013  -0.01941
  28        4PZ         0.00684  -0.00391  -0.00014   0.00407  -0.00408
  29 3   H  1S         -0.00777   0.04609   0.01496  -0.00222  -0.02992
  30        2S          0.08300  -0.03140  -0.01019   0.00151  -0.08914
  31        3S         -0.33751   0.56077   0.18206  -0.02702  -1.08512
  32        4PX        -0.00684   0.00362  -0.00256   0.00349   0.01580
  33        4PY        -0.00684   0.00091   0.00545   0.00116   0.00962
  34        4PZ         0.00684  -0.00257   0.00059   0.00499   0.00283
  35 4   H  1S         -0.00777  -0.02853   0.03728   0.01220   0.02181
  36        2S          0.08300   0.01944  -0.02540  -0.00831   0.06500
  37        3S         -0.33751  -0.34718   0.45362   0.14842   0.79124
  38        4PX         0.00684   0.00402  -0.00138   0.00372   0.01280
  39        4PY        -0.00684   0.00259   0.00495   0.00083  -0.00949
  40        4PZ        -0.00684  -0.00297  -0.00059   0.00477   0.00583
  41 5   H  1S         -0.00777  -0.00404  -0.03503   0.03331   0.05674
  42        2S          0.08300   0.00275   0.02387  -0.02270   0.16906
  43        3S         -0.33751  -0.04916  -0.42620   0.40530   2.05802
  44        4PX        -0.00684   0.00475  -0.00143   0.00269  -0.01623
  45        4PY         0.00684   0.00185   0.00500   0.00186   0.01954
  46        4PZ        -0.00684  -0.00352   0.00104   0.00429  -0.00708
                          11        12        13        14        15
                        (T2)--V   (T2)--V   (A1)--V   (T2)--V   (T2)--V
     Eigenvalues --     0.14581   0.14581   0.21063   0.40053   0.40053
   1 1   C  1S          0.00000   0.00000  -0.06410  -0.00000  -0.00000
   2        2S          0.00000   0.00000  -0.10058  -0.00000  -0.00000
   3        2PX         0.05034  -0.13840   0.00000  -0.05220   0.00231
   4        2PY         0.14714   0.04806   0.00000   0.00300  -0.05859
   5        2PZ        -0.00201   0.05221   0.00000   0.02851   0.01038
   6        3S          0.00000  -0.00000   0.17824  -0.00000   0.00000
   7        3PX         0.04294  -0.11804   0.00000  -0.03691   0.00163
   8        3PY         0.12550   0.04099  -0.00000   0.00212  -0.04143
   9        3PZ        -0.00172   0.04453   0.00000   0.02016   0.00734
  10        4S         -0.00000   0.00000   3.16438   0.00000  -0.00000
  11        4PX         0.44417  -1.22106  -0.00000   1.05335  -0.04659
  12        4PY         1.29824   0.42406   0.00000  -0.06046   1.18245
  13        4PZ        -0.01776   0.46068   0.00000  -0.57539  -0.20956
  14        5S         -0.00000  -0.00000   3.72448   0.00000   0.00000
  15        5PX         0.22995  -0.63217  -0.00000  -1.05930   0.04686
  16        5PY         0.67213   0.21955   0.00000   0.06081  -1.18913
  17        5PZ        -0.00919   0.23850   0.00000   0.57864   0.21074
  18        6D 0        0.00000  -0.00000  -0.00000  -0.00000  -0.00000
  19        6D+1       -0.03825  -0.01249  -0.00000  -0.00121   0.02358
  20        6D-1       -0.01309   0.03598  -0.00000   0.02101  -0.00093
  21        6D+2       -0.00000   0.00000   0.00000  -0.00000  -0.00000
  22        6D-2        0.00052  -0.01357  -0.00000  -0.01148  -0.00418
  23 2   H  1S         -0.05241   0.01022  -0.03896  -0.01684  -0.03737
  24        2S         -0.15616   0.03045  -0.04652  -0.29735  -0.65973
  25        3S         -1.90099   0.37071  -2.02857   0.40002   0.88752
  26        4PX        -0.01460  -0.00934  -0.00504   0.02347   0.01634
  27        4PY        -0.00542   0.00833  -0.00504   0.00677   0.03476
  28        4PZ        -0.01956   0.00873  -0.00504  -0.00095   0.01389
  29 3   H  1S          0.05349  -0.03822  -0.03896   0.06326   0.05427
  30        2S          0.15938  -0.11388  -0.04652   1.11696   0.95824
  31        3S          1.94014  -1.38627  -2.02857  -1.50262  -1.28909
  32        4PX        -0.01499   0.00100   0.00504   0.04463   0.02404
  33        4PY        -0.00582   0.01868   0.00504   0.02794   0.04247
  34        4PZ         0.01958  -0.00917  -0.00504  -0.03747  -0.02788
  35 4   H  1S          0.02541   0.06399  -0.03896  -0.06814   0.04113
  36        2S          0.07573   0.19067  -0.04652  -1.20309   0.72611
  37        3S          0.92184   2.32111  -2.02857   1.61848  -0.97681
  38        4PX         0.01417   0.01053  -0.00504   0.04686  -0.01945
  39        4PY         0.00456  -0.01909   0.00504  -0.03197   0.03648
  40        4PZ        -0.00958  -0.01870   0.00504  -0.03969   0.01561
  41 5   H  1S         -0.02649  -0.03599  -0.03896   0.02172  -0.05803
  42        2S         -0.07894  -0.10725  -0.04652   0.38348  -1.02461
  43        3S         -0.96098  -1.30554  -2.02857  -0.51589   1.37837
  44        4PX         0.01456   0.00018   0.00504   0.02569  -0.02716
  45        4PY         0.00416  -0.00874  -0.00504  -0.01081   0.04418
  46        4PZ         0.00960   0.01825   0.00504   0.00128  -0.02960
                          16        17        18        19        20
                        (T2)--V   (T2)--V   (T2)--V   (T2)--V   (A1)--V
     Eigenvalues --     0.40053   0.59492   0.59492   0.59492   0.60418
   1 1   C  1S         -0.00000   0.00000  -0.00000   0.00000  -0.03371
   2        2S         -0.00000   0.00000  -0.00000   0.00000  -0.05858
   3        2PX        -0.02858  -0.24857   0.12025   0.03963  -0.00000
   4        2PY        -0.01021  -0.02543   0.03811  -0.27517  -0.00000
   5        2PZ        -0.05124   0.12403   0.24881   0.02299  -0.00000
   6        3S          0.00000   0.00000  -0.00000  -0.00000  -0.02245
   7        3PX        -0.02021  -0.85717   0.41468   0.13664  -0.00000
   8        3PY        -0.00722  -0.08769   0.13141  -0.94890   0.00000
   9        3PZ        -0.03623   0.42771   0.85799   0.07929  -0.00000
  10        4S          0.00000  -0.00000   0.00000   0.00000   2.14239
  11        4PX         0.57668   1.53879  -0.74443  -0.24530   0.00000
  12        4PY         0.20598   0.15743  -0.23591   1.70346   0.00000
  13        4PZ         1.03407  -0.76783  -1.54026  -0.14235   0.00000
  14        5S          0.00000   0.00000  -0.00000  -0.00000  -1.48884
  15        5PX        -0.57993   0.20129  -0.09738  -0.03209   0.00000
  16        5PY        -0.20715   0.02059  -0.03086   0.22283  -0.00000
  17        5PZ        -1.03990  -0.10044  -0.20148  -0.01862   0.00000
  18        6D 0       -0.00000   0.00000   0.00000  -0.00000   0.00000
  19        6D+1        0.00411   0.00676  -0.01013   0.07316   0.00000
  20        6D-1        0.01150   0.06609  -0.03197  -0.01054   0.00000
  21        6D+2       -0.00000  -0.00000  -0.00000  -0.00000   0.00000
  22        6D-2        0.02063  -0.03298  -0.06615  -0.00611   0.00000
  23 2   H  1S         -0.07329   0.03278  -0.08900   0.04646  -0.08162
  24        2S         -1.29392   0.19923  -0.54093   0.28238  -1.30327
  25        3S          1.74067  -0.71001   1.92769  -1.00630   0.76848
  26        4PX         0.04206  -0.01995  -0.03105   0.03194   0.00576
  27        4PY         0.03650   0.01434  -0.04367  -0.01642   0.00576
  28        4PZ         0.04891   0.03730  -0.01130   0.02939   0.00576
  29 3   H  1S         -0.01014  -0.08701  -0.01977  -0.05651  -0.08162
  30        2S         -0.17906  -0.52879  -0.12016  -0.34347  -1.30327
  31        3S          0.24088   1.88444   0.42821   1.22403   0.76848
  32        4PX         0.00402   0.01023   0.02948   0.03754  -0.00576
  33        4PY        -0.00154   0.04451   0.01686  -0.01083  -0.00576
  34        4PZ         0.02013  -0.02936   0.02723  -0.02792   0.00576
  35 4   H  1S          0.02676   0.07589   0.03643  -0.06378  -0.08162
  36        2S          0.47247   0.46122   0.22141  -0.38766  -1.30327
  37        3S         -0.63560  -1.64365  -0.78905   1.38150   0.76848
  38        4PX        -0.00355   0.00404   0.03875  -0.02941   0.00576
  39        4PY         0.01529  -0.04614  -0.01442  -0.00678  -0.00576
  40        4PZ         0.02770  -0.02317   0.01795   0.03903  -0.00576
  41 5   H  1S          0.05667  -0.02166   0.07234   0.07384  -0.08162
  42        2S          1.00050  -0.13167   0.43967   0.44876  -1.30327
  43        3S         -1.34595   0.46921  -1.56685  -1.59923   0.76848
  44        4PX         0.03448  -0.02614  -0.02178  -0.03500  -0.00576
  45        4PY        -0.02275  -0.01596   0.04611  -0.00119   0.00576
  46        4PZ         0.04134   0.03111  -0.00203  -0.03756  -0.00576
                          21        22        23        24        25
                        (A1)--V   (E)--V    (E)--V    (T1)--V   (T1)--V
     Eigenvalues --     0.82387   0.96433   0.96433   1.45418   1.45418
   1 1   C  1S          0.12014   0.00000   0.00000   0.00000   0.00000
   2        2S          0.23686   0.00000   0.00000   0.00000   0.00000
   3        2PX        -0.00000   0.00000   0.00000  -0.00000   0.00000
   4        2PY         0.00000  -0.00000  -0.00000  -0.00000   0.00000
   5        2PZ        -0.00000   0.00000  -0.00000   0.00000  -0.00000
   6        3S         -2.13971  -0.00000  -0.00000  -0.00000  -0.00000
   7        3PX        -0.00000  -0.00000   0.00000  -0.00000  -0.00000
   8        3PY         0.00000  -0.00000  -0.00000  -0.00000   0.00000
   9        3PZ        -0.00000   0.00000  -0.00000   0.00000  -0.00000
  10        4S          6.63722   0.00000   0.00000   0.00000   0.00000
  11        4PX         0.00000  -0.00000  -0.00000  -0.00000   0.00000
  12        4PY        -0.00000   0.00000   0.00000  -0.00000   0.00000
  13        4PZ         0.00000  -0.00000   0.00000   0.00000  -0.00000
  14        5S          1.95706   0.00000   0.00000   0.00000   0.00000
  15        5PX         0.00000  -0.00000   0.00000   0.00000   0.00000
  16        5PY        -0.00000  -0.00000   0.00000   0.00000  -0.00000
  17        5PZ        -0.00000  -0.00000   0.00000  -0.00000  -0.00000
  18        6D 0        0.00000   0.21379   0.42263   0.00000   0.00000
  19        6D+1       -0.00000   0.00000  -0.00000  -0.00000   0.00000
  20        6D-1       -0.00000  -0.00000   0.00000  -0.00000  -0.00000
  21        6D+2        0.00000   0.42263  -0.21379  -0.00000  -0.00000
  22        6D-2       -0.00000   0.00000   0.00000   0.00000   0.00000
  23 2   H  1S          0.05735   0.00000  -0.00000  -0.00000   0.00000
  24        2S         -0.38622  -0.00000  -0.00000   0.00000  -0.00000
  25        3S         -1.80246  -0.00000  -0.00000  -0.00000   0.00000
  26        4PX         0.08252   0.13587  -0.20789  -0.22287   0.41473
  27        4PY         0.08252  -0.24797  -0.01372   0.03491  -0.03195
  28        4PZ         0.08252   0.11210   0.22161   0.18796  -0.38278
  29 3   H  1S          0.05735   0.00000  -0.00000   0.00000  -0.00000
  30        2S         -0.38622  -0.00000  -0.00000  -0.00000   0.00000
  31        3S         -1.80246  -0.00000  -0.00000   0.00000   0.00000
  32        4PX        -0.08252  -0.13587   0.20789  -0.42763  -0.07836
  33        4PY        -0.08252   0.24797   0.01372   0.23967   0.46113
  34        4PZ         0.08252   0.11210   0.22161  -0.18796   0.38278
  35 4   H  1S          0.05735  -0.00000  -0.00000   0.00000  -0.00000
  36        2S         -0.38622   0.00000  -0.00000  -0.00000   0.00000
  37        3S         -1.80246  -0.00000  -0.00000  -0.00000  -0.00000
  38        4PX         0.08252   0.13587  -0.20789   0.22287  -0.41473
  39        4PY        -0.08252   0.24797   0.01372  -0.23967  -0.46113
  40        4PZ        -0.08252  -0.11210  -0.22161   0.46254   0.04641
  41 5   H  1S          0.05735   0.00000  -0.00000  -0.00000   0.00000
  42        2S         -0.38622  -0.00000  -0.00000   0.00000  -0.00000
  43        3S         -1.80246  -0.00000  -0.00000  -0.00000   0.00000
  44        4PX        -0.08252  -0.13587   0.20789   0.42763   0.07836
  45        4PY         0.08252  -0.24797  -0.01372  -0.03491   0.03195
  46        4PZ        -0.08252  -0.11210  -0.22161  -0.46254  -0.04641
                          26        27        28        29        30
                        (T1)--V   (T2)--V   (T2)--V   (T2)--V   (T2)--V
     Eigenvalues --     1.45418   1.53271   1.53271   1.53271   1.90136
   1 1   C  1S          0.00000  -0.00000   0.00000   0.00000  -0.00000
   2        2S          0.00000  -0.00000   0.00000   0.00000  -0.00000
   3        2PX        -0.00000   0.04288  -0.06512   0.04730   0.12934
   4        2PY         0.00000  -0.07917  -0.04377   0.01152   0.22616
   5        2PZ        -0.00000   0.01448  -0.04648  -0.07711  -0.10267
   6        3S         -0.00000   0.00000  -0.00000  -0.00000   0.00000
   7        3PX        -0.00000   0.01218  -0.01849   0.01343  -0.21495
   8        3PY         0.00000  -0.02248  -0.01243   0.00327  -0.37583
   9        3PZ        -0.00000   0.00411  -0.01320  -0.02190   0.17062
  10        4S          0.00000  -0.00000   0.00000   0.00000  -0.00000
  11        4PX        -0.00000   0.51989  -0.78956   0.57358   0.33775
  12        4PY         0.00000  -0.95999  -0.53067   0.13963   0.59055
  13        4PZ        -0.00000   0.17557  -0.56362  -0.93498  -0.26809
  14        5S          0.00000   0.00000   0.00000   0.00000  -0.00000
  15        5PX         0.00000  -0.21541   0.32716  -0.23766   0.08371
  16        5PY        -0.00000   0.39777   0.21988  -0.05786   0.14638
  17        5PZ         0.00000  -0.07275   0.23354   0.38741  -0.06645
  18        6D 0       -0.00000   0.00000   0.00000  -0.00000  -0.00000
  19        6D+1        0.00000  -0.69803  -0.38586   0.10153  -0.61386
  20        6D-1       -0.00000   0.37802  -0.57410   0.41706  -0.35108
  21        6D+2        0.00000   0.00000   0.00000  -0.00000   0.00000
  22        6D-2       -0.00000   0.12766  -0.40982  -0.67984   0.27867
  23 2   H  1S         -0.00000  -0.03300  -0.23502  -0.02767  -0.21864
  24        2S          0.00000   0.21648   1.54166   0.18149   0.53457
  25        3S         -0.00000  -0.11193  -0.79709  -0.09383  -0.58894
  26        4PX        -0.22038  -0.14442   0.15411  -0.15733  -0.17342
  27        4PY         0.51769   0.24519   0.08595  -0.04309  -0.39453
  28        4PZ        -0.29731  -0.05377   0.09463   0.23982   0.35644
  29 3   H  1S          0.00000   0.07681   0.09439  -0.20562   0.39621
  30        2S         -0.00000  -0.50384  -0.61917   1.34881  -0.96872
  31        3S          0.00000   0.26050   0.32013  -0.69738   1.06725
  32        4PX         0.28500  -0.15444   0.18628  -0.10398  -0.07437
  33        4PY         0.01230   0.23517   0.11812   0.01027  -0.29547
  34        4PZ         0.29731  -0.02865   0.16997   0.19912   0.01345
  35 4   H  1S         -0.00000   0.16272   0.03802   0.17078  -0.00506
  36        2S          0.00000  -1.06739  -0.24938  -1.12028   0.01238
  37        3S         -0.00000   0.55187   0.12894   0.57922  -0.01364
  38        4PX         0.22038  -0.09965   0.21656  -0.11194  -0.29257
  39        4PY        -0.01230   0.21552   0.13101  -0.07582  -0.51932
  40        4PZ         0.23268  -0.08344   0.13969   0.20709   0.23165
  41 5   H  1S          0.00000  -0.20653   0.10261   0.06251  -0.17250
  42        2S         -0.00000   1.35474  -0.67311  -0.41002   0.42177
  43        3S          0.00000  -0.70045   0.34802   0.21199  -0.46467
  44        4PX        -0.28500  -0.08963   0.18440  -0.16530  -0.39163
  45        4PY        -0.51769   0.20550   0.16318  -0.02246  -0.42026
  46        4PZ        -0.23268   0.00102   0.12491   0.23186   0.13824
                          31        32        33        34        35
                        (T2)--V   (T2)--V   (A1)--V   (E)--V    (E)--V
     Eigenvalues --     1.90136   1.90136   2.27703   2.31358   2.31358
   1 1   C  1S         -0.00000   0.00000  -0.05653  -0.00000   0.00000
   2        2S         -0.00000   0.00000  -0.10307  -0.00000   0.00000
   3        2PX        -0.16069   0.18939   0.00000  -0.00000   0.00000
   4        2PY         0.16446  -0.01491  -0.00000  -0.00000  -0.00000
   5        2PZ         0.15984   0.20574   0.00000  -0.00000   0.00000
   6        3S          0.00000  -0.00000   0.42354   0.00000  -0.00000
   7        3PX         0.26704  -0.31472  -0.00000  -0.00000  -0.00000
   8        3PY        -0.27331   0.02478  -0.00000  -0.00000  -0.00000
   9        3PZ        -0.26562  -0.34190  -0.00000  -0.00000   0.00000
  10        4S         -0.00000  -0.00000   0.54271   0.00000  -0.00000
  11        4PX        -0.41960   0.49453   0.00000  -0.00000  -0.00000
  12        4PY         0.42945  -0.03894  -0.00000  -0.00000  -0.00000
  13        4PZ         0.41738   0.53723   0.00000  -0.00000   0.00000
  14        5S         -0.00000  -0.00000   1.17339   0.00000  -0.00000
  15        5PX        -0.10400   0.12258   0.00000   0.00000   0.00000
  16        5PY         0.10645  -0.00965   0.00000   0.00000   0.00000
  17        5PZ         0.10345   0.13316   0.00000   0.00000  -0.00000
  18        6D 0       -0.00000   0.00000  -0.00000   1.20384  -0.30685
  19        6D+1       -0.44640   0.04048  -0.00000  -0.00000  -0.00000
  20        6D-1        0.43616  -0.51405   0.00000  -0.00000  -0.00000
  21        6D+2        0.00000   0.00000   0.00000   0.30685   1.20384
  22        6D-2       -0.43385  -0.55844   0.00000  -0.00000   0.00000
  23 2   H  1S         -0.14149  -0.32879  -0.68610  -0.00000   0.00000
  24        2S          0.34593   0.80389   0.86391   0.00000  -0.00000
  25        3S         -0.38111  -0.88565  -0.87129  -0.00000   0.00000
  26        4PX         0.44591  -0.24910   0.19722   0.12689  -0.45143
  27        4PY        -0.29667   0.21748   0.19722   0.32750   0.33560
  28        4PZ        -0.28611  -0.28645   0.19722  -0.45439   0.11582
  29 3   H  1S         -0.13496  -0.02704  -0.68610  -0.00000   0.00000
  30        2S          0.32997   0.06611   0.86391   0.00000  -0.00000
  31        3S         -0.36353  -0.07283  -0.87129  -0.00000   0.00000
  32        4PX         0.29169  -0.44760  -0.19722  -0.12689   0.45143
  33        4PY        -0.45089   0.01898  -0.19722  -0.32750  -0.33560
  34        4PZ        -0.28975  -0.45478   0.19722  -0.45439   0.11582
  35 4   H  1S          0.41940   0.00125  -0.68610  -0.00000   0.00000
  36        2S         -1.02543  -0.00304   0.86391   0.00000  -0.00000
  37        3S          1.12972   0.00335  -0.87129  -0.00000   0.00000
  38        4PX         0.13302  -0.43321   0.19722   0.12689  -0.45143
  39        4PY        -0.14163   0.03475  -0.19722  -0.32750  -0.33560
  40        4PZ        -0.13107  -0.46917  -0.19722   0.45439  -0.11582
  41 5   H  1S         -0.14296   0.35459  -0.68610  -0.00000   0.00000
  42        2S          0.34953  -0.86695   0.86391   0.00000  -0.00000
  43        3S         -0.38508   0.95513  -0.87129  -0.00000   0.00000
  44        4PX         0.28723  -0.23471  -0.19722  -0.12689   0.45143
  45        4PY        -0.29585  -0.16375   0.19722   0.32750   0.33560
  46        4PZ        -0.44479  -0.27206  -0.19722   0.45439  -0.11582
                          36        37        38        39        40
                        (T2)--V   (T2)--V   (T2)--V   (T2)--V   (T2)--V
     Eigenvalues --     2.47593   2.47593   2.47593   2.54337   2.54337
   1 1   C  1S          0.00000  -0.00000   0.00000   0.00000   0.00000
   2        2S          0.00000  -0.00000  -0.00000   0.00000   0.00000
   3        2PX        -0.04085  -0.48309   0.10494   0.54964  -0.27792
   4        2PY        -0.49396   0.03566  -0.02810   0.35179   0.59340
   5        2PZ        -0.01983   0.10682   0.48400   0.24035  -0.23297
   6        3S         -0.00000   0.00000  -0.00000  -0.00000  -0.00000
   7        3PX        -0.10565  -1.24947   0.27142  -0.81463   0.41191
   8        3PY        -1.27758   0.09224  -0.07269  -0.52139  -0.87947
   9        3PZ        -0.05128   0.27627   1.25182  -0.35623   0.34529
  10        4S         -0.00000  -0.00000   0.00000  -0.00000  -0.00000
  11        4PX        -0.07395  -0.87457   0.18998   0.09828  -0.04969
  12        4PY        -0.89424   0.06456  -0.05088   0.06290   0.10610
  13        4PZ        -0.03589   0.19337   0.87621   0.04298  -0.04166
  14        5S         -0.00000  -0.00000   0.00000  -0.00000   0.00000
  15        5PX         0.02780   0.32874  -0.07141   0.24446  -0.12361
  16        5PY         0.33613  -0.02427   0.01912   0.15647   0.26392
  17        5PZ         0.01349  -0.07269  -0.32936   0.10690  -0.10362
  18        6D 0       -0.00000  -0.00000   0.00000  -0.00000  -0.00000
  19        6D+1       -0.93833   0.06775  -0.05339   0.28385   0.47879
  20        6D-1       -0.07760  -0.91768   0.19935   0.44349  -0.22425
  21        6D+2       -0.00000  -0.00000  -0.00000  -0.00000   0.00000
  22        6D-2       -0.03766   0.20291   0.91941   0.19393  -0.18798
  23 2   H  1S         -0.32160  -0.19750   0.32520  -0.98992  -0.07153
  24        2S          1.71181   1.05126  -1.73095   1.50274   0.10858
  25        3S         -0.40941  -0.25143   0.41399  -1.21460  -0.08776
  26        4PX        -0.63473  -0.24762   0.62208   0.07250  -0.14906
  27        4PY        -0.49407  -0.40866   0.66338  -0.02361   0.27421
  28        4PZ        -0.64126  -0.43075   0.50440  -0.07775  -0.12723
  29 3   H  1S          0.29861   0.32137   0.23609   0.57315   0.47550
  30        2S         -1.58943  -1.71060  -1.25666  -0.87007  -0.72183
  31        3S          0.38015   0.40913   0.30055   0.70325   0.58343
  32        4PX        -0.58845  -0.49699  -0.50785   0.15439  -0.22844
  33        4PY        -0.44778  -0.65803  -0.46655   0.05828   0.19483
  34        4PZ         0.60728   0.61380   0.32502   0.22938  -0.01975
  35 4   H  1S          0.27423  -0.36273  -0.20350   0.03685   0.55344
  36        2S         -1.45966   1.93074   1.08317  -0.05594  -0.84014
  37        3S          0.34911  -0.46178  -0.25906   0.04521   0.67905
  38        4PX         0.56473  -0.58024  -0.44224   0.27425  -0.02627
  39        4PY        -0.39870   0.71914   0.41839   0.16366   0.17952
  40        4PZ        -0.54589   0.69706   0.25941   0.10952  -0.22192
  41 5   H  1S         -0.25124   0.23886  -0.35779   0.37992  -0.95741
  42        2S          1.33728  -1.27140   1.90444  -0.57673   1.45339
  43        3S         -0.31984   0.30408  -0.45548   0.46615  -1.17471
  44        4PX         0.51845  -0.33088   0.68769   0.19236   0.05311
  45        4PY        -0.35242   0.46978  -0.71154   0.24554   0.10015
  46        4PZ         0.51192  -0.51401   0.57001   0.04211   0.07494
                          41        42        43        44        45
                        (T2)--V   (A1)--V   (T2)--V   (T2)--V   (T2)--V
     Eigenvalues --     2.54337   2.87448   3.79072   3.79072   3.79072
   1 1   C  1S         -0.00000  -0.09717   0.00000   0.00000   0.00000
   2        2S         -0.00000  -0.24854   0.00000   0.00000   0.00000
   3        2PX         0.32294  -0.00000  -0.12956  -1.15798  -0.00438
   4        2PY        -0.08808  -0.00000  -1.15789   0.12949   0.01555
   5        2PZ        -0.60958   0.00000  -0.01497   0.00608  -1.16510
   6        3S          0.00000   1.86123  -0.00000  -0.00000  -0.00000
   7        3PX        -0.47862   0.00000   0.39105   3.49518   0.01322
   8        3PY         0.13054  -0.00000   3.49492  -0.39084  -0.04694
   9        3PZ         0.90346  -0.00000   0.04518  -0.01836   3.51668
  10        4S          0.00000   3.60365  -0.00000  -0.00000  -0.00000
  11        4PX         0.05774   0.00000  -0.01225  -0.10953  -0.00041
  12        4PY        -0.01575  -0.00000  -0.10952   0.01225   0.00147
  13        4PZ        -0.10900   0.00000  -0.00142   0.00058  -0.11020
  14        5S          0.00000  -0.32809   0.00000   0.00000  -0.00000
  15        5PX         0.14363   0.00000  -0.00889  -0.07946  -0.00030
  16        5PY        -0.03917   0.00000  -0.07946   0.00889   0.00107
  17        5PZ        -0.27112   0.00000  -0.00103   0.00042  -0.07995
  18        6D 0       -0.00000  -0.00000   0.00000   0.00000   0.00000
  19        6D+1       -0.07107   0.00000   1.51478  -0.16940  -0.02035
  20        6D-1        0.26057   0.00000   0.16949   1.51489   0.00573
  21        6D+2        0.00000  -0.00000   0.00000   0.00000  -0.00000
  22        6D-2       -0.49185  -0.00000   0.01958  -0.00796   1.52421
  23 2   H  1S          0.32488   0.47785  -0.51861  -0.40712  -0.45949
  24        2S         -0.49319  -2.01127  -1.24109  -0.97426  -1.09959
  25        3S          0.39862   0.05595   0.36771   0.28866   0.32579
  26        4PX         0.22071   0.52047   0.67168   0.32518   0.61623
  27        4PY         0.02105   0.52047   0.47494   0.57151   0.62004
  28        4PZ        -0.23229   0.52047   0.69361   0.54790   0.39415
  29 3   H  1S          0.73212   0.47785   0.50669   0.41196  -0.46838
  30        2S         -1.11139  -2.01127   1.21256   0.98586  -1.12088
  31        3S          0.89829   0.05595  -0.35926  -0.29209   0.33210
  32        4PX         0.01303  -0.52047   0.65567   0.33169  -0.62985
  33        4PY        -0.18664  -0.52047   0.45893   0.57802  -0.62604
  34        4PZ        -0.15228   0.52047  -0.68333  -0.55208   0.40610
  35 4   H  1S         -0.88485   0.47785   0.41544  -0.51508   0.45600
  36        2S          1.34323  -2.01127   0.99417  -1.23264   1.09124
  37        3S         -1.08568   0.05595  -0.29456   0.36521  -0.32332
  38        4PX        -0.01698   0.52047  -0.58270   0.47018  -0.61322
  39        4PY         0.13107  -0.52047   0.33637  -0.66696   0.61536
  40        4PZ        -0.12227  -0.52047   0.55504  -0.69057   0.38947
  41 5   H  1S         -0.17216   0.47785  -0.40352   0.51024   0.47187
  42        2S          0.26134  -2.01127  -0.96565   1.22105   1.12923
  43        3S         -0.21123   0.05595   0.28611  -0.36178  -0.33457
  44        4PX         0.19070  -0.52047  -0.56669   0.46367   0.63286
  45        4PY        -0.07661   0.52047   0.32036  -0.66045  -0.63072
  46        4PZ        -0.26230  -0.52047  -0.54476   0.68639   0.41079
                          46
                        (A1)--V
     Eigenvalues --    24.01885
   1 1   C  1S         -2.04020
   2        2S          2.24802
   3        2PX         0.00000
   4        2PY        -0.00000
   5        2PZ        -0.00000
   6        3S         -0.79263
   7        3PX         0.00000
   8        3PY         0.00000
   9        3PZ         0.00000
  10        4S          0.05485
  11        4PX        -0.00000
  12        4PY         0.00000
  13        4PZ        -0.00000
  14        5S          0.18485
  15        5PX         0.00000
  16        5PY         0.00000
  17        5PZ        -0.00000
  18        6D 0       -0.00000
  19        6D+1        0.00000
  20        6D-1       -0.00000
  21        6D+2        0.00000
  22        6D-2        0.00000
  23 2   H  1S         -0.02161
  24        2S          0.27433
  25        3S         -0.14369
  26        4PX        -0.09433
  27        4PY        -0.09433
  28        4PZ        -0.09433
  29 3   H  1S         -0.02161
  30        2S          0.27433
  31        3S         -0.14369
  32        4PX         0.09433
  33        4PY         0.09433
  34        4PZ        -0.09433
  35 4   H  1S         -0.02161
  36        2S          0.27433
  37        3S         -0.14369
  38        4PX        -0.09433
  39        4PY         0.09433
  40        4PZ         0.09433
  41 5   H  1S         -0.02161
  42        2S          0.27433
  43        3S         -0.14369
  44        4PX         0.09433
  45        4PY        -0.09433
  46        4PZ         0.09433
     Density Matrix:
                           1         2         3         4         5
   1 1   C  1S          0.65768
   2        2S          0.55830   0.48600
   3        2PX        -0.00000  -0.00000   0.08435
   4        2PY        -0.00000  -0.00000  -0.00000   0.08435
   5        2PZ         0.00000   0.00000   0.00000   0.00000   0.08435
   6        3S         -0.07389  -0.13032  -0.00000   0.00000  -0.00000
   7        3PX        -0.00000   0.00000   0.11945  -0.00000   0.00000
   8        3PY         0.00000   0.00000  -0.00000   0.11945   0.00000
   9        3PZ        -0.00000  -0.00000   0.00000   0.00000   0.11945
  10        4S         -0.06771  -0.09931   0.00000  -0.00000  -0.00000
  11        4PX        -0.00000   0.00000   0.08189  -0.00000   0.00000
  12        4PY         0.00000  -0.00000  -0.00000   0.08189   0.00000
  13        4PZ         0.00000   0.00000   0.00000   0.00000   0.08189
  14        5S         -0.00861  -0.01012  -0.00000   0.00000  -0.00000
  15        5PX         0.00000   0.00000   0.00562  -0.00000   0.00000
  16        5PY        -0.00000  -0.00000  -0.00000   0.00562   0.00000
  17        5PZ         0.00000   0.00000   0.00000   0.00000   0.00562
  18        6D 0        0.00000  -0.00000   0.00000   0.00000   0.00000
  19        6D+1       -0.00000  -0.00000  -0.00000   0.00976   0.00000
  20        6D-1       -0.00000  -0.00000   0.00976  -0.00000   0.00000
  21        6D+2        0.00000   0.00000  -0.00000   0.00000  -0.00000
  22        6D-2        0.00000   0.00000   0.00000   0.00000   0.00976
  23 2   H  1S         -0.01844  -0.02879   0.04314   0.04314   0.04314
  24        2S         -0.02628  -0.03778   0.06024   0.06024   0.06024
  25        3S          0.00309   0.00205   0.02818   0.02818   0.02818
  26        4PX         0.00338   0.00426   0.00158  -0.00381  -0.00381
  27        4PY         0.00338   0.00426  -0.00381   0.00158  -0.00381
  28        4PZ         0.00338   0.00426  -0.00381  -0.00381   0.00158
  29 3   H  1S         -0.01844  -0.02879  -0.04314  -0.04314   0.04314
  30        2S         -0.02628  -0.03778  -0.06024  -0.06024   0.06024
  31        3S          0.00309   0.00205  -0.02818  -0.02818   0.02818
  32        4PX        -0.00338  -0.00426   0.00158  -0.00381   0.00381
  33        4PY        -0.00338  -0.00426  -0.00381   0.00158   0.00381
  34        4PZ         0.00338   0.00426   0.00381   0.00381   0.00158
  35 4   H  1S         -0.01844  -0.02879   0.04314  -0.04314  -0.04314
  36        2S         -0.02628  -0.03778   0.06024  -0.06024  -0.06024
  37        3S          0.00309   0.00205   0.02818  -0.02818  -0.02818
  38        4PX         0.00338   0.00426   0.00158   0.00381   0.00381
  39        4PY        -0.00338  -0.00426   0.00381   0.00158  -0.00381
  40        4PZ        -0.00338  -0.00426   0.00381  -0.00381   0.00158
  41 5   H  1S         -0.01844  -0.02879  -0.04314   0.04314  -0.04314
  42        2S         -0.02628  -0.03778  -0.06024   0.06024  -0.06024
  43        3S          0.00309   0.00205  -0.02818   0.02818  -0.02818
  44        4PX        -0.00338  -0.00426   0.00158   0.00381  -0.00381
  45        4PY         0.00338   0.00426   0.00381   0.00158   0.00381
  46        4PZ        -0.00338  -0.00426  -0.00381   0.00381   0.00158
                           6         7         8         9        10
   6        3S          0.38721
   7        3PX        -0.00000   0.16915
   8        3PY        -0.00000  -0.00000   0.16915
   9        3PZ         0.00000   0.00000   0.00000   0.16915
  10        4S          0.24209   0.00000  -0.00000   0.00000   0.15208
  11        4PX        -0.00000   0.11597  -0.00000   0.00000   0.00000
  12        4PY         0.00000  -0.00000   0.11597   0.00000   0.00000
  13        4PZ        -0.00000   0.00000   0.00000   0.11597  -0.00000
  14        5S          0.01673  -0.00000   0.00000  -0.00000   0.01064
  15        5PX        -0.00000   0.00796  -0.00000   0.00000  -0.00000
  16        5PY         0.00000  -0.00000   0.00796   0.00000   0.00000
  17        5PZ        -0.00000   0.00000   0.00000   0.00796  -0.00000
  18        6D 0        0.00000   0.00000   0.00000   0.00000   0.00000
  19        6D+1        0.00000  -0.00000   0.01382   0.00000   0.00000
  20        6D-1        0.00000   0.01382  -0.00000   0.00000   0.00000
  21        6D+2       -0.00000  -0.00000   0.00000  -0.00000  -0.00000
  22        6D-2       -0.00000   0.00000   0.00000   0.01382  -0.00000
  23 2   H  1S          0.07571   0.06108   0.06108   0.06108   0.04747
  24        2S          0.08968   0.08531   0.08531   0.08531   0.05638
  25        3S          0.00288   0.03991   0.03991   0.03991   0.00168
  26        4PX        -0.00816   0.00223  -0.00540  -0.00540  -0.00517
  27        4PY        -0.00816  -0.00540   0.00223  -0.00540  -0.00517
  28        4PZ        -0.00816  -0.00540  -0.00540   0.00223  -0.00517
  29 3   H  1S          0.07571  -0.06108  -0.06108   0.06108   0.04747
  30        2S          0.08968  -0.08531  -0.08531   0.08531   0.05638
  31        3S          0.00288  -0.03991  -0.03991   0.03991   0.00168
  32        4PX         0.00816   0.00223  -0.00540   0.00540   0.00517
  33        4PY         0.00816  -0.00540   0.00223   0.00540   0.00517
  34        4PZ        -0.00816   0.00540   0.00540   0.00223  -0.00517
  35 4   H  1S          0.07571   0.06108  -0.06108  -0.06108   0.04747
  36        2S          0.08968   0.08531  -0.08531  -0.08531   0.05638
  37        3S          0.00288   0.03991  -0.03991  -0.03991   0.00168
  38        4PX        -0.00816   0.00223   0.00540   0.00540  -0.00517
  39        4PY         0.00816   0.00540   0.00223  -0.00540   0.00517
  40        4PZ         0.00816   0.00540  -0.00540   0.00223   0.00517
  41 5   H  1S          0.07571  -0.06108   0.06108  -0.06108   0.04747
  42        2S          0.08968  -0.08531   0.08531  -0.08531   0.05638
  43        3S          0.00288  -0.03991   0.03991  -0.03991   0.00168
  44        4PX         0.00816   0.00223   0.00540  -0.00540   0.00517
  45        4PY        -0.00816   0.00540   0.00223   0.00540  -0.00517
  46        4PZ         0.00816  -0.00540   0.00540   0.00223   0.00517
                          11        12        13        14        15
  11        4PX         0.07951
  12        4PY        -0.00000   0.07951
  13        4PZ         0.00000   0.00000   0.07951
  14        5S          0.00000   0.00000  -0.00000   0.00077
  15        5PX         0.00546  -0.00000   0.00000  -0.00000   0.00037
  16        5PY        -0.00000   0.00546   0.00000   0.00000  -0.00000
  17        5PZ         0.00000   0.00000   0.00546  -0.00000   0.00000
  18        6D 0        0.00000   0.00000   0.00000   0.00000   0.00000
  19        6D+1       -0.00000   0.00948   0.00000   0.00000  -0.00000
  20        6D-1        0.00948  -0.00000   0.00000  -0.00000   0.00065
  21        6D+2       -0.00000   0.00000  -0.00000  -0.00000  -0.00000
  22        6D-2        0.00000   0.00000   0.00948  -0.00000   0.00000
  23 2   H  1S          0.04188   0.04188   0.04188   0.00331   0.00288
  24        2S          0.05849   0.05849   0.05849   0.00395   0.00402
  25        3S          0.02736   0.02736   0.02736   0.00009   0.00188
  26        4PX         0.00153  -0.00370  -0.00370  -0.00037   0.00011
  27        4PY        -0.00370   0.00153  -0.00370  -0.00037  -0.00025
  28        4PZ        -0.00370  -0.00370   0.00153  -0.00037  -0.00025
  29 3   H  1S         -0.04188  -0.04188   0.04188   0.00331  -0.00288
  30        2S         -0.05849  -0.05849   0.05849   0.00395  -0.00402
  31        3S         -0.02736  -0.02736   0.02736   0.00009  -0.00188
  32        4PX         0.00153  -0.00370   0.00370   0.00037   0.00011
  33        4PY        -0.00370   0.00153   0.00370   0.00037  -0.00025
  34        4PZ         0.00370   0.00370   0.00153  -0.00037   0.00025
  35 4   H  1S          0.04188  -0.04188  -0.04188   0.00331   0.00288
  36        2S          0.05849  -0.05849  -0.05849   0.00395   0.00402
  37        3S          0.02736  -0.02736  -0.02736   0.00009   0.00188
  38        4PX         0.00153   0.00370   0.00370  -0.00037   0.00011
  39        4PY         0.00370   0.00153  -0.00370   0.00037   0.00025
  40        4PZ         0.00370  -0.00370   0.00153   0.00037   0.00025
  41 5   H  1S         -0.04188   0.04188  -0.04188   0.00331  -0.00288
  42        2S         -0.05849   0.05849  -0.05849   0.00395  -0.00402
  43        3S         -0.02736   0.02736  -0.02736   0.00009  -0.00188
  44        4PX         0.00153   0.00370  -0.00370   0.00037   0.00011
  45        4PY         0.00370   0.00153   0.00370  -0.00037   0.00025
  46        4PZ        -0.00370   0.00370   0.00153   0.00037  -0.00025
                          16        17        18        19        20
  16        5PY         0.00037
  17        5PZ         0.00000   0.00037
  18        6D 0        0.00000   0.00000   0.00000
  19        6D+1        0.00065   0.00000   0.00000   0.00113
  20        6D-1       -0.00000   0.00000   0.00000  -0.00000   0.00113
  21        6D+2        0.00000  -0.00000   0.00000   0.00000  -0.00000
  22        6D-2        0.00000   0.00065   0.00000   0.00000   0.00000
  23 2   H  1S          0.00288   0.00288   0.00000   0.00499   0.00499
  24        2S          0.00402   0.00402   0.00000   0.00697   0.00697
  25        3S          0.00188   0.00188   0.00000   0.00326   0.00326
  26        4PX        -0.00025  -0.00025  -0.00000  -0.00044   0.00018
  27        4PY         0.00011  -0.00025  -0.00000   0.00018  -0.00044
  28        4PZ        -0.00025   0.00011  -0.00000  -0.00044  -0.00044
  29 3   H  1S         -0.00288   0.00288   0.00000  -0.00499  -0.00499
  30        2S         -0.00402   0.00402   0.00000  -0.00697  -0.00697
  31        3S         -0.00188   0.00188   0.00000  -0.00326  -0.00326
  32        4PX        -0.00025   0.00025   0.00000  -0.00044   0.00018
  33        4PY         0.00011   0.00025   0.00000   0.00018  -0.00044
  34        4PZ         0.00025   0.00011   0.00000   0.00044   0.00044
  35 4   H  1S         -0.00288  -0.00288  -0.00000  -0.00499   0.00499
  36        2S         -0.00402  -0.00402  -0.00000  -0.00697   0.00697
  37        3S         -0.00188  -0.00188  -0.00000  -0.00326   0.00326
  38        4PX         0.00025   0.00025   0.00000   0.00044   0.00018
  39        4PY         0.00011  -0.00025  -0.00000   0.00018   0.00044
  40        4PZ        -0.00025   0.00011   0.00000  -0.00044   0.00044
  41 5   H  1S          0.00288  -0.00288  -0.00000   0.00499  -0.00499
  42        2S          0.00402  -0.00402  -0.00000   0.00697  -0.00697
  43        3S          0.00188  -0.00188  -0.00000   0.00326  -0.00326
  44        4PX         0.00025  -0.00025  -0.00000   0.00044   0.00018
  45        4PY         0.00011   0.00025   0.00000   0.00018   0.00044
  46        4PZ         0.00025   0.00011   0.00000   0.00044  -0.00044
                          21        22        23        24        25
  21        6D+2        0.00000
  22        6D-2       -0.00000   0.00113
  23 2   H  1S         -0.00000   0.00499   0.08100
  24        2S         -0.00000   0.00697   0.11001   0.14997
  25        3S         -0.00000   0.00326   0.04378   0.06100   0.02829
  26        4PX        -0.00000  -0.00044  -0.00470  -0.00624  -0.00207
  27        4PY         0.00000  -0.00044  -0.00470  -0.00624  -0.00207
  28        4PZ        -0.00000   0.00018  -0.00470  -0.00624  -0.00207
  29 3   H  1S         -0.00000   0.00499  -0.00723  -0.01321  -0.01387
  30        2S         -0.00000   0.00697  -0.01321  -0.02212  -0.01951
  31        3S         -0.00000   0.00326  -0.01387  -0.01951  -0.00937
  32        4PX        -0.00000   0.00044   0.00241   0.00304   0.00058
  33        4PY        -0.00000   0.00044   0.00241   0.00304   0.00058
  34        4PZ         0.00000   0.00018   0.00310   0.00465   0.00302
  35 4   H  1S         -0.00000  -0.00499  -0.00723  -0.01321  -0.01387
  36        2S         -0.00000  -0.00697  -0.01321  -0.02212  -0.01951
  37        3S         -0.00000  -0.00326  -0.01387  -0.01951  -0.00937
  38        4PX        -0.00000   0.00044   0.00310   0.00465   0.00302
  39        4PY         0.00000  -0.00044   0.00241   0.00304   0.00058
  40        4PZ        -0.00000   0.00018   0.00241   0.00304   0.00058
  41 5   H  1S          0.00000  -0.00499  -0.00723  -0.01321  -0.01387
  42        2S          0.00000  -0.00697  -0.01321  -0.02212  -0.01951
  43        3S          0.00000  -0.00326  -0.01387  -0.01951  -0.00937
  44        4PX         0.00000  -0.00044   0.00241   0.00304   0.00058
  45        4PY        -0.00000   0.00044   0.00310   0.00465   0.00302
  46        4PZ         0.00000   0.00018   0.00241   0.00304   0.00058
                          26        27        28        29        30
  26        4PX         0.00055
  27        4PY         0.00021   0.00055
  28        4PZ         0.00021   0.00021   0.00055
  29 3   H  1S         -0.00241  -0.00241   0.00310   0.08100
  30        2S         -0.00304  -0.00304   0.00465   0.11001   0.14997
  31        3S         -0.00058  -0.00058   0.00302   0.04378   0.06100
  32        4PX        -0.00015  -0.00049  -0.00001   0.00470   0.00624
  33        4PY        -0.00049  -0.00015  -0.00001   0.00470   0.00624
  34        4PZ         0.00001   0.00001  -0.00014  -0.00470  -0.00624
  35 4   H  1S          0.00310  -0.00241  -0.00241  -0.00723  -0.01321
  36        2S          0.00465  -0.00304  -0.00304  -0.01321  -0.02212
  37        3S          0.00302  -0.00058  -0.00058  -0.01387  -0.01951
  38        4PX        -0.00014   0.00001   0.00001  -0.00241  -0.00304
  39        4PY        -0.00001  -0.00015  -0.00049  -0.00310  -0.00465
  40        4PZ        -0.00001  -0.00049  -0.00015   0.00241   0.00304
  41 5   H  1S         -0.00241   0.00310  -0.00241  -0.00723  -0.01321
  42        2S         -0.00304   0.00465  -0.00304  -0.01321  -0.02212
  43        3S         -0.00058   0.00302  -0.00058  -0.01387  -0.01951
  44        4PX        -0.00015  -0.00001  -0.00049  -0.00310  -0.00465
  45        4PY         0.00001  -0.00014   0.00001  -0.00241  -0.00304
  46        4PZ        -0.00049  -0.00001  -0.00015   0.00241   0.00304
                          31        32        33        34        35
  31        3S          0.02829
  32        4PX         0.00207   0.00055
  33        4PY         0.00207   0.00021   0.00055
  34        4PZ        -0.00207  -0.00021  -0.00021   0.00055
  35 4   H  1S         -0.01387   0.00241  -0.00310  -0.00241   0.08100
  36        2S         -0.01951   0.00304  -0.00465  -0.00304   0.11001
  37        3S         -0.00937   0.00058  -0.00302  -0.00058   0.04378
  38        4PX        -0.00058  -0.00015  -0.00001   0.00049  -0.00470
  39        4PY        -0.00302   0.00001  -0.00014  -0.00001   0.00470
  40        4PZ         0.00058   0.00049   0.00001  -0.00015   0.00470
  41 5   H  1S         -0.01387  -0.00310   0.00241  -0.00241  -0.00723
  42        2S         -0.01951  -0.00465   0.00304  -0.00304  -0.01321
  43        3S         -0.00937  -0.00302   0.00058  -0.00058  -0.01387
  44        4PX        -0.00302  -0.00014   0.00001  -0.00001   0.00241
  45        4PY        -0.00058  -0.00001  -0.00015   0.00049  -0.00241
  46        4PZ         0.00058   0.00001   0.00049  -0.00015  -0.00310
                          36        37        38        39        40
  36        2S          0.14997
  37        3S          0.06100   0.02829
  38        4PX        -0.00624  -0.00207   0.00055
  39        4PY         0.00624   0.00207  -0.00021   0.00055
  40        4PZ         0.00624   0.00207  -0.00021   0.00021   0.00055
  41 5   H  1S         -0.01321  -0.01387  -0.00241   0.00241  -0.00310
  42        2S         -0.02212  -0.01951  -0.00304   0.00304  -0.00465
  43        3S         -0.01951  -0.00937  -0.00058   0.00058  -0.00302
  44        4PX         0.00304   0.00058  -0.00015   0.00049   0.00001
  45        4PY        -0.00304  -0.00058   0.00049  -0.00015  -0.00001
  46        4PZ        -0.00465  -0.00302  -0.00001   0.00001  -0.00014
                          41        42        43        44        45
  41 5   H  1S          0.08100
  42        2S          0.11001   0.14997
  43        3S          0.04378   0.06100   0.02829
  44        4PX         0.00470   0.00624   0.00207   0.00055
  45        4PY        -0.00470  -0.00624  -0.00207  -0.00021   0.00055
  46        4PZ         0.00470   0.00624   0.00207   0.00021  -0.00021
                          46
  46        4PZ         0.00055
    Full Mulliken population analysis:
                           1         2         3         4         5
   1 1   C  1S          0.65768
   2        2S          0.49044   0.48600
   3        2PX         0.00000   0.00000   0.08435
   4        2PY         0.00000   0.00000   0.00000   0.08435
   5        2PZ         0.00000   0.00000   0.00000   0.00000   0.08435
   6        3S         -0.02432  -0.05458   0.00000   0.00000   0.00000
   7        3PX         0.00000   0.00000   0.07515   0.00000   0.00000
   8        3PY         0.00000   0.00000   0.00000   0.07515   0.00000
   9        3PZ         0.00000   0.00000   0.00000   0.00000   0.07515
  10        4S         -0.01041  -0.01859   0.00000   0.00000   0.00000
  11        4PX         0.00000   0.00000   0.01804   0.00000   0.00000
  12        4PY         0.00000   0.00000   0.00000   0.01804   0.00000
  13        4PZ         0.00000   0.00000   0.00000   0.00000   0.01804
  14        5S         -0.00056  -0.00079   0.00000   0.00000   0.00000
  15        5PX         0.00000   0.00000   0.00032   0.00000   0.00000
  16        5PY         0.00000   0.00000   0.00000   0.00032   0.00000
  17        5PZ         0.00000   0.00000   0.00000   0.00000   0.00032
  18        6D 0       -0.00000   0.00000   0.00000   0.00000   0.00000
  19        6D+1       -0.00000  -0.00000   0.00000   0.00000   0.00000
  20        6D-1       -0.00000  -0.00000   0.00000   0.00000   0.00000
  21        6D+2        0.00000   0.00000   0.00000   0.00000   0.00000
  22        6D-2       -0.00000  -0.00000   0.00000   0.00000   0.00000
  23 2   H  1S         -0.00022  -0.00030   0.00264   0.00264   0.00264
  24        2S         -0.00194  -0.00335   0.00610   0.00610   0.00610
  25        3S          0.00024   0.00019   0.00108   0.00108   0.00108
  26        4PX        -0.00017  -0.00026  -0.00006   0.00051   0.00051
  27        4PY        -0.00017  -0.00026   0.00051  -0.00006   0.00051
  28        4PZ        -0.00017  -0.00026   0.00051   0.00051  -0.00006
  29 3   H  1S         -0.00022  -0.00030   0.00264   0.00264   0.00264
  30        2S         -0.00194  -0.00335   0.00610   0.00610   0.00610
  31        3S          0.00024   0.00019   0.00108   0.00108   0.00108
  32        4PX        -0.00017  -0.00026  -0.00006   0.00051   0.00051
  33        4PY        -0.00017  -0.00026   0.00051  -0.00006   0.00051
  34        4PZ        -0.00017  -0.00026   0.00051   0.00051  -0.00006
  35 4   H  1S         -0.00022  -0.00030   0.00264   0.00264   0.00264
  36        2S         -0.00194  -0.00335   0.00610   0.00610   0.00610
  37        3S          0.00024   0.00019   0.00108   0.00108   0.00108
  38        4PX        -0.00017  -0.00026  -0.00006   0.00051   0.00051
  39        4PY        -0.00017  -0.00026   0.00051  -0.00006   0.00051
  40        4PZ        -0.00017  -0.00026   0.00051   0.00051  -0.00006
  41 5   H  1S         -0.00022  -0.00030   0.00264   0.00264   0.00264
  42        2S         -0.00194  -0.00335   0.00610   0.00610   0.00610
  43        3S          0.00024   0.00019   0.00108   0.00108   0.00108
  44        4PX        -0.00017  -0.00026  -0.00006   0.00051   0.00051
  45        4PY        -0.00017  -0.00026   0.00051  -0.00006   0.00051
  46        4PZ        -0.00017  -0.00026   0.00051   0.00051  -0.00006
                           6         7         8         9        10
   6        3S          0.38721
   7        3PX         0.00000   0.16915
   8        3PY         0.00000   0.00000   0.16915
   9        3PZ         0.00000   0.00000   0.00000   0.16915
  10        4S          0.18755   0.00000   0.00000   0.00000   0.15208
  11        4PX         0.00000   0.07578   0.00000   0.00000   0.00000
  12        4PY         0.00000   0.00000   0.07578   0.00000   0.00000
  13        4PZ         0.00000   0.00000   0.00000   0.07578   0.00000
  14        5S          0.00686   0.00000   0.00000   0.00000   0.00824
  15        5PX         0.00000   0.00180   0.00000   0.00000   0.00000
  16        5PY         0.00000   0.00000   0.00180   0.00000   0.00000
  17        5PZ         0.00000   0.00000   0.00000   0.00180   0.00000
  18        6D 0       -0.00000   0.00000   0.00000   0.00000  -0.00000
  19        6D+1        0.00000   0.00000   0.00000   0.00000   0.00000
  20        6D-1        0.00000   0.00000   0.00000   0.00000   0.00000
  21        6D+2       -0.00000   0.00000   0.00000   0.00000  -0.00000
  22        6D-2        0.00000   0.00000   0.00000   0.00000   0.00000
  23 2   H  1S          0.01413   0.01359   0.01359   0.01359   0.01263
  24        2S          0.03809   0.02415   0.02415   0.02415   0.03265
  25        3S          0.00133   0.00536   0.00536   0.00536   0.00127
  26        4PX         0.00182   0.00010   0.00121   0.00121   0.00065
  27        4PY         0.00182   0.00121   0.00010   0.00121   0.00065
  28        4PZ         0.00182   0.00121   0.00121   0.00010   0.00065
  29 3   H  1S          0.01413   0.01359   0.01359   0.01359   0.01263
  30        2S          0.03809   0.02415   0.02415   0.02415   0.03265
  31        3S          0.00133   0.00536   0.00536   0.00536   0.00127
  32        4PX         0.00182   0.00010   0.00121   0.00121   0.00065
  33        4PY         0.00182   0.00121   0.00010   0.00121   0.00065
  34        4PZ         0.00182   0.00121   0.00121   0.00010   0.00065
  35 4   H  1S          0.01413   0.01359   0.01359   0.01359   0.01263
  36        2S          0.03809   0.02415   0.02415   0.02415   0.03265
  37        3S          0.00133   0.00536   0.00536   0.00536   0.00127
  38        4PX         0.00182   0.00010   0.00121   0.00121   0.00065
  39        4PY         0.00182   0.00121   0.00010   0.00121   0.00065
  40        4PZ         0.00182   0.00121   0.00121   0.00010   0.00065
  41 5   H  1S          0.01413   0.01359   0.01359   0.01359   0.01263
  42        2S          0.03809   0.02415   0.02415   0.02415   0.03265
  43        3S          0.00133   0.00536   0.00536   0.00536   0.00127
  44        4PX         0.00182   0.00010   0.00121   0.00121   0.00065
  45        4PY         0.00182   0.00121   0.00010   0.00121   0.00065
  46        4PZ         0.00182   0.00121   0.00121   0.00010   0.00065
                          11        12        13        14        15
  11        4PX         0.07951
  12        4PY         0.00000   0.07951
  13        4PZ         0.00000   0.00000   0.07951
  14        5S          0.00000   0.00000   0.00000   0.00077
  15        5PX         0.00357   0.00000   0.00000   0.00000   0.00037
  16        5PY         0.00000   0.00357   0.00000   0.00000   0.00000
  17        5PZ         0.00000   0.00000   0.00357   0.00000   0.00000
  18        6D 0        0.00000   0.00000   0.00000  -0.00000   0.00000
  19        6D+1        0.00000   0.00000   0.00000   0.00000   0.00000
  20        6D-1        0.00000   0.00000   0.00000  -0.00000   0.00000
  21        6D+2        0.00000   0.00000   0.00000  -0.00000   0.00000
  22        6D-2        0.00000   0.00000   0.00000   0.00000   0.00000
  23 2   H  1S          0.00906   0.00906   0.00906   0.00058   0.00024
  24        2S          0.02126   0.02126   0.02126   0.00174   0.00078
  25        3S          0.00778   0.00778   0.00778   0.00007   0.00050
  26        4PX         0.00028   0.00036   0.00036   0.00001   0.00001
  27        4PY         0.00036   0.00028   0.00036   0.00001   0.00000
  28        4PZ         0.00036   0.00036   0.00028   0.00001   0.00000
  29 3   H  1S          0.00906   0.00906   0.00906   0.00058   0.00024
  30        2S          0.02126   0.02126   0.02126   0.00174   0.00078
  31        3S          0.00778   0.00778   0.00778   0.00007   0.00050
  32        4PX         0.00028   0.00036   0.00036   0.00001   0.00001
  33        4PY         0.00036   0.00028   0.00036   0.00001   0.00000
  34        4PZ         0.00036   0.00036   0.00028   0.00001   0.00000
  35 4   H  1S          0.00906   0.00906   0.00906   0.00058   0.00024
  36        2S          0.02126   0.02126   0.02126   0.00174   0.00078
  37        3S          0.00778   0.00778   0.00778   0.00007   0.00050
  38        4PX         0.00028   0.00036   0.00036   0.00001   0.00001
  39        4PY         0.00036   0.00028   0.00036   0.00001   0.00000
  40        4PZ         0.00036   0.00036   0.00028   0.00001   0.00000
  41 5   H  1S          0.00906   0.00906   0.00906   0.00058   0.00024
  42        2S          0.02126   0.02126   0.02126   0.00174   0.00078
  43        3S          0.00778   0.00778   0.00778   0.00007   0.00050
  44        4PX         0.00028   0.00036   0.00036   0.00001   0.00001
  45        4PY         0.00036   0.00028   0.00036   0.00001   0.00000
  46        4PZ         0.00036   0.00036   0.00028   0.00001   0.00000
                          16        17        18        19        20
  16        5PY         0.00037
  17        5PZ         0.00000   0.00037
  18        6D 0        0.00000   0.00000   0.00000
  19        6D+1        0.00000   0.00000   0.00000   0.00113
  20        6D-1        0.00000   0.00000   0.00000   0.00000   0.00113
  21        6D+2        0.00000   0.00000  -0.00000   0.00000   0.00000
  22        6D-2        0.00000   0.00000   0.00000   0.00000   0.00000
  23 2   H  1S          0.00024   0.00024   0.00000   0.00118   0.00118
  24        2S          0.00078   0.00078   0.00000   0.00108   0.00108
  25        3S          0.00050   0.00050  -0.00000   0.00009   0.00009
  26        4PX         0.00000   0.00000   0.00000  -0.00000  -0.00004
  27        4PY         0.00001   0.00000   0.00000  -0.00004  -0.00000
  28        4PZ         0.00000   0.00001  -0.00000  -0.00000  -0.00000
  29 3   H  1S          0.00024   0.00024  -0.00000   0.00118   0.00118
  30        2S          0.00078   0.00078  -0.00000   0.00108   0.00108
  31        3S          0.00050   0.00050  -0.00000   0.00009   0.00009
  32        4PX         0.00000   0.00000   0.00000  -0.00000  -0.00004
  33        4PY         0.00001   0.00000   0.00000  -0.00004  -0.00000
  34        4PZ         0.00000   0.00001   0.00000  -0.00000  -0.00000
  35 4   H  1S          0.00024   0.00024   0.00000   0.00118   0.00118
  36        2S          0.00078   0.00078   0.00000   0.00108   0.00108
  37        3S          0.00050   0.00050   0.00000   0.00009   0.00009
  38        4PX         0.00000   0.00000  -0.00000  -0.00000  -0.00004
  39        4PY         0.00001   0.00000  -0.00000  -0.00004  -0.00000
  40        4PZ         0.00000   0.00001  -0.00000  -0.00000  -0.00000
  41 5   H  1S          0.00024   0.00024   0.00000   0.00118   0.00118
  42        2S          0.00078   0.00078   0.00000   0.00108   0.00108
  43        3S          0.00050   0.00050   0.00000   0.00009   0.00009
  44        4PX         0.00000   0.00000  -0.00000  -0.00000  -0.00004
  45        4PY         0.00001   0.00000  -0.00000  -0.00004  -0.00000
  46        4PZ         0.00000   0.00001  -0.00000  -0.00000  -0.00000
                          21        22        23        24        25
  21        6D+2        0.00000
  22        6D-2        0.00000   0.00113
  23 2   H  1S         -0.00000   0.00118   0.08100
  24        2S         -0.00000   0.00108   0.07771   0.14997
  25        3S         -0.00000   0.00009   0.01636   0.04813   0.02829
  26        4PX        -0.00000  -0.00000   0.00000   0.00000   0.00000
  27        4PY        -0.00000  -0.00000   0.00000   0.00000   0.00000
  28        4PZ         0.00000  -0.00004   0.00000   0.00000   0.00000
  29 3   H  1S          0.00000   0.00118  -0.00001  -0.00050  -0.00177
  30        2S         -0.00000   0.00108  -0.00050  -0.00349  -0.00635
  31        3S         -0.00000   0.00009  -0.00177  -0.00635  -0.00524
  32        4PX         0.00000  -0.00000   0.00003   0.00026   0.00005
  33        4PY        -0.00000  -0.00000   0.00003   0.00026   0.00005
  34        4PZ         0.00000  -0.00004   0.00000   0.00000   0.00000
  35 4   H  1S         -0.00000   0.00118  -0.00001  -0.00050  -0.00177
  36        2S         -0.00000   0.00108  -0.00050  -0.00349  -0.00635
  37        3S         -0.00000   0.00009  -0.00177  -0.00635  -0.00524
  38        4PX        -0.00000  -0.00000  -0.00000  -0.00000  -0.00000
  39        4PY         0.00000  -0.00000   0.00003   0.00026   0.00005
  40        4PZ        -0.00000  -0.00004   0.00003   0.00026   0.00005
  41 5   H  1S          0.00000   0.00118  -0.00001  -0.00050  -0.00177
  42        2S          0.00000   0.00108  -0.00050  -0.00349  -0.00635
  43        3S          0.00000   0.00009  -0.00177  -0.00635  -0.00524
  44        4PX        -0.00000  -0.00000   0.00003   0.00026   0.00005
  45        4PY         0.00000  -0.00000  -0.00000  -0.00000  -0.00000
  46        4PZ         0.00000  -0.00004   0.00003   0.00026   0.00005
                          26        27        28        29        30
  26        4PX         0.00055
  27        4PY        -0.00000   0.00055
  28        4PZ         0.00000   0.00000   0.00055
  29 3   H  1S          0.00003   0.00003  -0.00000   0.08100
  30        2S          0.00026   0.00026  -0.00000   0.07771   0.14997
  31        3S          0.00005   0.00005  -0.00000   0.01636   0.04813
  32        4PX         0.00001   0.00003   0.00000   0.00000   0.00000
  33        4PY         0.00003   0.00001   0.00000   0.00000   0.00000
  34        4PZ        -0.00000  -0.00000  -0.00000   0.00000   0.00000
  35 4   H  1S          0.00000   0.00003   0.00003  -0.00001  -0.00050
  36        2S          0.00000   0.00026   0.00026  -0.00050  -0.00349
  37        3S          0.00000   0.00005   0.00005  -0.00177  -0.00635
  38        4PX        -0.00000   0.00000   0.00000   0.00003   0.00026
  39        4PY        -0.00000   0.00001   0.00003  -0.00000  -0.00000
  40        4PZ        -0.00000   0.00003   0.00001   0.00003   0.00026
  41 5   H  1S          0.00003  -0.00000   0.00003  -0.00001  -0.00050
  42        2S          0.00026  -0.00000   0.00026  -0.00050  -0.00349
  43        3S          0.00005  -0.00000   0.00005  -0.00177  -0.00635
  44        4PX         0.00001   0.00000   0.00003  -0.00000  -0.00000
  45        4PY        -0.00000  -0.00000   0.00000   0.00003   0.00026
  46        4PZ         0.00003  -0.00000   0.00001   0.00003   0.00026
                          31        32        33        34        35
  31        3S          0.02829
  32        4PX         0.00000   0.00055
  33        4PY         0.00000  -0.00000   0.00055
  34        4PZ         0.00000  -0.00000  -0.00000   0.00055
  35 4   H  1S         -0.00177   0.00003   0.00000   0.00003   0.08100
  36        2S         -0.00635   0.00026   0.00000   0.00026   0.07771
  37        3S         -0.00524   0.00005   0.00000   0.00005   0.01636
  38        4PX         0.00005   0.00001  -0.00000   0.00003   0.00000
  39        4PY        -0.00000   0.00000  -0.00000   0.00000   0.00000
  40        4PZ         0.00005   0.00003  -0.00000   0.00001   0.00000
  41 5   H  1S         -0.00177   0.00000   0.00003   0.00003  -0.00001
  42        2S         -0.00635   0.00000   0.00026   0.00026  -0.00050
  43        3S         -0.00524   0.00000   0.00005   0.00005  -0.00177
  44        4PX        -0.00000  -0.00000   0.00000   0.00000   0.00003
  45        4PY         0.00005  -0.00000   0.00001   0.00003   0.00003
  46        4PZ         0.00005  -0.00000   0.00003   0.00001  -0.00000
                          36        37        38        39        40
  36        2S          0.14997
  37        3S          0.04813   0.02829
  38        4PX         0.00000   0.00000   0.00055
  39        4PY         0.00000   0.00000   0.00000   0.00055
  40        4PZ         0.00000   0.00000  -0.00000   0.00000   0.00055
  41 5   H  1S         -0.00050  -0.00177   0.00003   0.00003  -0.00000
  42        2S         -0.00349  -0.00635   0.00026   0.00026  -0.00000
  43        3S         -0.00635  -0.00524   0.00005   0.00005  -0.00000
  44        4PX         0.00026   0.00005   0.00001   0.00003  -0.00000
  45        4PY         0.00026   0.00005   0.00003   0.00001  -0.00000
  46        4PZ        -0.00000  -0.00000   0.00000   0.00000  -0.00000
                          41        42        43        44        45
  41 5   H  1S          0.08100
  42        2S          0.07771   0.14997
  43        3S          0.01636   0.04813   0.02829
  44        4PX         0.00000   0.00000   0.00000   0.00055
  45        4PY         0.00000   0.00000   0.00000   0.00000   0.00055
  46        4PZ         0.00000   0.00000   0.00000   0.00000   0.00000
                          46
  46        4PZ         0.00055
     Gross orbital populations:
                           1
   1 1   C  1S          1.10311
   2        2S          0.88555
   3        2PX         0.22096
   4        2PY         0.22096
   5        2PZ         0.22096
   6        3S          0.73885
   7        3PX         0.50434
   8        3PY         0.50434
   9        3PZ         0.50434
  10        4S          0.51294
  11        4PX         0.33326
  12        4PY         0.33326
  13        4PZ         0.33326
  14        5S          0.02424
  15        5PX         0.01224
  16        5PY         0.01224
  17        5PZ         0.01224
  18        6D 0        0.00000
  19        6D+1        0.01034
  20        6D-1        0.01034
  21        6D+2        0.00000
  22        6D-2        0.01034
  23 2   H  1S          0.27538
  24        2S          0.47360
  25        3S          0.10060
  26        4PX         0.00780
  27        4PY         0.00780
  28        4PZ         0.00780
  29 3   H  1S          0.27538
  30        2S          0.47360
  31        3S          0.10060
  32        4PX         0.00780
  33        4PY         0.00780
  34        4PZ         0.00780
  35 4   H  1S          0.27538
  36        2S          0.47360
  37        3S          0.10060
  38        4PX         0.00780
  39        4PY         0.00780
  40        4PZ         0.00780
  41 5   H  1S          0.27538
  42        2S          0.47360
  43        3S          0.10060
  44        4PX         0.00780
  45        4PY         0.00780
  46        4PZ         0.00780
          Condensed to atoms (all electrons):
               1          2          3          4          5
     1  C    4.902817   0.401328   0.401328   0.401328   0.401328
     2  H    0.401328   0.545303  -0.024555  -0.024555  -0.024555
     3  H    0.401328  -0.024555   0.545303  -0.024555  -0.024555
     4  H    0.401328  -0.024555  -0.024555   0.545303  -0.024555
     5  H    0.401328  -0.024555  -0.024555  -0.024555   0.545303
 Mulliken charges:
               1
     1  C   -0.508129
     2  H    0.127032
     3  H    0.127032
     4  H    0.127032
     5  H    0.127032
 Sum of Mulliken charges =  -0.00000
 Mulliken charges with hydrogens summed into heavy atoms:
               1
     1  C   -0.000000
 Electronic spatial extent (au):  <R**2>=             35.9521
 Charge=              0.0000 electrons
 Dipole moment (field-independent basis, Debye):
    X=             -0.0000    Y=             -0.0000    Z=             -0.0000  Tot=              0.0000
 Quadrupole moment (field-independent basis, Debye-Ang):
   XX=             -8.4971   YY=             -8.4971   ZZ=             -8.4971
   XY=              0.0000   XZ=             -0.0000   YZ=             -0.0000
 Traceless Quadrupole moment (field-independent basis, Debye-Ang):
   XX=             -0.0000   YY=              0.0000   ZZ=             -0.0000
   XY=              0.0000   XZ=             -0.0000   YZ=             -0.0000
 Octapole moment (field-independent basis, Debye-Ang**2):
  XXX=             -0.0000  YYY=             -0.0000  ZZZ=             -0.0000  XYY=             -0.0000
  XXY=             -0.0000  XXZ=              0.0000  XZZ=             -0.0000  YZZ=             -0.0000
  YYZ=              0.0000  XYZ=              0.7359
 Hexadecapole moment (field-independent basis, Debye-Ang**3):
 XXXX=            -17.3169 YYYY=            -17.3169 ZZZZ=            -17.3169 XXXY=              0.0000
 XXXZ=             -0.0000 YYYX=              0.0000 YYYZ=             -0.0000 ZZZX=             -0.0000
 ZZZY=             -0.0000 XXYY=             -5.2592 XXZZ=             -5.2592 YYZZ=             -5.2592
 XXYZ=             -0.0000 YYXZ=             -0.0000 ZZXY=              0.0000
 N-N= 1.342404550189D+01 E-N=-1.200973988154D+02  KE= 4.027868332792D+01
 Symmetry A    KE= 3.444173127063D+01
 Symmetry B1   KE= 1.945650685764D+00
 Symmetry B2   KE= 1.945650685764D+00
 Symmetry B3   KE= 1.945650685764D+00
 Orbital energies and kinetic energies (alpha):
                                 1                 2
   1         (A1)--O         -10.153119         15.954988
   2         (A1)--O          -0.696609          1.265877
   3         (T2)--O          -0.395378          0.972825
   4         (T2)--O          -0.395378          0.972825
   5         (T2)--O          -0.395378          0.972825
   6         (A1)--V           0.009537          0.295820
   7         (T2)--V           0.057130          0.202237
   8         (T2)--V           0.057130          0.202237
   9         (T2)--V           0.057130          0.202237
  10         (T2)--V           0.145813          0.647939
  11         (T2)--V           0.145813          0.647939
  12         (T2)--V           0.145813          0.647939
  13         (A1)--V           0.210631          0.767544
  14         (T2)--V           0.400527          0.804246
  15         (T2)--V           0.400527          0.804246
  16         (T2)--V           0.400527          0.804246
  17         (T2)--V           0.594921          1.836929
  18         (T2)--V           0.594921          1.836929
  19         (T2)--V           0.594921          1.836929
  20         (A1)--V           0.604184          1.285701
  21         (A1)--V           0.823871          2.443847
  22         (E)--V            0.964335          1.723071
  23         (E)--V            0.964335          1.723071
  24         (T1)--V           1.454177          2.083884
  25         (T1)--V           1.454177          2.083884
  26         (T1)--V           1.454177          2.083884
  27         (T2)--V           1.532706          2.369028
  28         (T2)--V           1.532706          2.369028
  29         (T2)--V           1.532706          2.369028
  30         (T2)--V           1.901361          2.865591
  31         (T2)--V           1.901361          2.865591
  32         (T2)--V           1.901361          2.865591
  33         (A1)--V           2.277027          3.993147
  34         (E)--V            2.313578          3.143760
  35         (E)--V            2.313578          3.143760
  36         (T2)--V           2.475926          3.918677
  37         (T2)--V           2.475926          3.918677
  38         (T2)--V           2.475926          3.918677
  39         (T2)--V           2.543369          4.632945
  40         (T2)--V           2.543369          4.632945
  41         (T2)--V           2.543369          4.632945
  42         (A1)--V           2.874478          4.534363
  43         (T2)--V           3.790721          6.293392
  44         (T2)--V           3.790721          6.293392
  45         (T2)--V           3.790721          6.293392
  46         (A1)--V          24.018853         60.386499
 Total kinetic energy from orbitals= 4.027868332792D+01
 No NMR shielding tensors so no spin-rotation constants.
 Leave Link  601 at Tue Jun 30 11:52:34 2026, MaxMem=   104857600 cpu:               0.1 elap:               0.1
 (Enter /sw/apps/software/noarch/Gaussian/g16.B01/g16/l607.exe)
 ******************************Gaussian NBO Version 3.1******************************
             N A T U R A L   A T O M I C   O R B I T A L   A N D
          N A T U R A L   B O N D   O R B I T A L   A N A L Y S I S
 ******************************Gaussian NBO Version 3.1******************************

       /NBO    / : Print Natural Bond Orbital Analysis
       /RESON  / : Allow strongly delocalized NBO set
       /PLOT   / : Write information for the orbital plotter
       /BNDIDX / : Print bond indices based on the NAO density matrix

 Analyzing the SCF density

 Job title: Geometry optimization + ground-state NBO analysis               

 Storage needed:      6652 in NPA,      8649 in NBO,      6603 in NLMO ( 104857425 available)
 GSVD:  LWork=         202 too small for GESVD, short by        3365 words or        3365 for optimal perf.


 NATURAL POPULATIONS:  Natural atomic orbital occupancies 
                                                          
   NAO  Atom  No  lang   Type(AO)    Occupancy      Energy
 ----------------------------------------------------------
     1    C    1  S      Cor( 1S)     1.99949     -10.01255
     2    C    1  S      Val( 2S)     1.16108      -0.28091
     3    C    1  S      Ryd( 4S)     0.00000       0.78596
     4    C    1  S      Ryd( 5S)     0.00000      23.44864
     5    C    1  S      Ryd( 3S)     0.00000       0.24054
     6    C    1  px     Val( 2p)     1.21611      -0.09550
     7    C    1  px     Ryd( 4p)     0.00000       0.65685
     8    C    1  px     Ryd( 5p)     0.00000       2.90017
     9    C    1  px     Ryd( 3p)     0.00000       0.23274
    10    C    1  py     Val( 2p)     1.21611      -0.09550
    11    C    1  py     Ryd( 4p)     0.00000       0.65685
    12    C    1  py     Ryd( 5p)     0.00000       2.90017
    13    C    1  py     Ryd( 3p)     0.00000       0.23274
    14    C    1  pz     Val( 2p)     1.21611      -0.09550
    15    C    1  pz     Ryd( 4p)     0.00000       0.65685
    16    C    1  pz     Ryd( 5p)     0.00000       2.90017
    17    C    1  pz     Ryd( 3p)     0.00000       0.23274
    18    C    1  dxy    Ryd( 3d)     0.00087       2.22734
    19    C    1  dxz    Ryd( 3d)     0.00087       2.22734
    20    C    1  dyz    Ryd( 3d)     0.00087       2.22734
    21    C    1  dx2y2  Ryd( 3d)     0.00000       1.73765
    22    C    1  dz2    Ryd( 3d)     0.00000       1.73765

    23    H    2  S      Val( 1S)     0.79639       0.03594
    24    H    2  S      Ryd( 2S)     0.00015       0.99060
    25    H    2  S      Ryd( 3S)     0.00007       1.65908
    26    H    2  px     Ryd( 2p)     0.00017       1.98869
    27    H    2  py     Ryd( 2p)     0.00017       1.98869
    28    H    2  pz     Ryd( 2p)     0.00017       1.98869

    29    H    3  S      Val( 1S)     0.79639       0.03594
    30    H    3  S      Ryd( 2S)     0.00015       0.99060
    31    H    3  S      Ryd( 3S)     0.00007       1.65908
    32    H    3  px     Ryd( 2p)     0.00017       1.98869
    33    H    3  py     Ryd( 2p)     0.00017       1.98869
    34    H    3  pz     Ryd( 2p)     0.00017       1.98869

    35    H    4  S      Val( 1S)     0.79639       0.03594
    36    H    4  S      Ryd( 2S)     0.00015       0.99060
    37    H    4  S      Ryd( 3S)     0.00007       1.65908
    38    H    4  px     Ryd( 2p)     0.00017       1.98869
    39    H    4  py     Ryd( 2p)     0.00017       1.98869
    40    H    4  pz     Ryd( 2p)     0.00017       1.98869

    41    H    5  S      Val( 1S)     0.79639       0.03594
    42    H    5  S      Ryd( 2S)     0.00015       0.99060
    43    H    5  S      Ryd( 3S)     0.00007       1.65908
    44    H    5  px     Ryd( 2p)     0.00017       1.98869
    45    H    5  py     Ryd( 2p)     0.00017       1.98869
    46    H    5  pz     Ryd( 2p)     0.00017       1.98869

 WARNING:  Population inversion found on atom  C    1


 Summary of Natural Population Analysis:                  
                                                          
                                       Natural Population 
                Natural  -----------------------------------------------
    Atom  No    Charge         Core      Valence    Rydberg      Total
 -----------------------------------------------------------------------
      C    1   -0.81151      1.99949     4.80942    0.00260     6.81151
      H    2    0.20288      0.00000     0.79639    0.00074     0.79712
      H    3    0.20288      0.00000     0.79639    0.00074     0.79712
      H    4    0.20288      0.00000     0.79639    0.00074     0.79712
      H    5    0.20288      0.00000     0.79639    0.00074     0.79712
 =======================================================================
   * Total *   -0.00000      1.99949     7.99497    0.00555    10.00000

                                 Natural Population      
 --------------------------------------------------------
   Core                       1.99949 ( 99.9743% of   2)
   Valence                    7.99497 ( 99.9371% of   8)
   Natural Minimal Basis      9.99445 ( 99.9445% of  10)
   Natural Rydberg Basis      0.00555 (  0.0555% of  10)
 --------------------------------------------------------

    Atom  No          Natural Electron Configuration
 ----------------------------------------------------------------------------
      C    1      [core]2S( 1.16)2p( 3.65)
      H    2            1S( 0.80)
      H    3            1S( 0.80)
      H    4            1S( 0.80)
      H    5            1S( 0.80)


 Wiberg bond index matrix in the NAO basis:                                    

     Atom    1       2       3       4       5
     ---- ------  ------  ------  ------  ------
   1.  C  0.0000  0.9585  0.9585  0.9585  0.9585
   2.  H  0.9585  0.0000  0.0004  0.0004  0.0004
   3.  H  0.9585  0.0004  0.0000  0.0004  0.0004
   4.  H  0.9585  0.0004  0.0004  0.0000  0.0004
   5.  H  0.9585  0.0004  0.0004  0.0004  0.0000


 Wiberg bond index, Totals by atom:                                            

     Atom    1
     ---- ------
   1.  C  3.8338
   2.  H  0.9595
   3.  H  0.9595
   4.  H  0.9595
   5.  H  0.9595


 Atom-atom overlap-weighted NAO bond order:                                    

     Atom    1       2       3       4       5
     ---- ------  ------  ------  ------  ------
   1.  C  0.0000  0.7923  0.7923  0.7923  0.7923
   2.  H  0.7923  0.0000  0.0065  0.0065  0.0065
   3.  H  0.7923  0.0065  0.0000  0.0065  0.0065
   4.  H  0.7923  0.0065  0.0065  0.0000  0.0065
   5.  H  0.7923  0.0065  0.0065  0.0065  0.0000


 Atom-atom overlap-weighted NAO bond order, Totals by atom:                    

     Atom    1
     ---- ------
   1.  C  3.1693
   2.  H  0.8117
   3.  H  0.8117
   4.  H  0.8117
   5.  H  0.8117


 MO bond order:                                                                

     Atom    1       2       3       4       5
     ---- ------  ------  ------  ------  ------
   1.  C  0.0000  1.9152  0.0024  0.0024  0.0024
   2.  H  1.9152  0.0000  0.0227  0.0227  0.0227
   3.  H  0.0024  0.0227  0.0000  0.0062  0.0062
   4.  H  0.0024  0.0227  0.0062  0.0000  0.0062
   5.  H  0.0024  0.0227  0.0062  0.0062  0.0000


 MO atomic valencies:                                                          

     Atom    1
     ---- ------
   1.  C  1.9224
   2.  H  1.9834
   3.  H  0.0375
   4.  H  0.0375
   5.  H  0.0375


 NATURAL BOND ORBITAL ANALYSIS:

                       Occupancies       Lewis Structure    Low   High
           Occ.    -------------------  -----------------   occ   occ
  Cycle   Thresh.   Lewis   Non-Lewis     CR  BD  3C  LP    (L)   (NL)   Dev
 =============================================================================
   1(1)    1.90     9.99708   0.00292      1   4   0   0     0      0    0.00
 -----------------------------------------------------------------------------

 Structure accepted: No low occupancy Lewis orbitals

 --------------------------------------------------------
   Core                      1.99949 ( 99.974% of   2)
   Valence Lewis             7.99759 ( 99.970% of   8)
  ==================       ============================
   Total Lewis               9.99708 ( 99.971% of  10)
  -----------------------------------------------------
   Valence non-Lewis         0.00121 (  0.012% of  10)
   Rydberg non-Lewis         0.00171 (  0.017% of  10)
  ==================       ============================
   Total non-Lewis           0.00292 (  0.029% of  10)
 --------------------------------------------------------


       (Occupancy)   Bond orbital/ Coefficients/ Hybrids
 ---------------------------------------------------------------------------------
     1. (1.99940) BD ( 1) C   1 - H   2  
                ( 60.16%)   0.7756* C   1 s( 25.00%)p 3.00( 74.95%)d 0.00(  0.05%)
                                            0.0000  0.5000  0.0000  0.0000  0.0000
                                            0.4998  0.0000  0.0000  0.0000  0.4998
                                            0.0000  0.0000  0.0000  0.4998  0.0000
                                            0.0000  0.0000  0.0134  0.0134  0.0134
                                            0.0000  0.0000
                ( 39.84%)   0.6312* H   2 s( 99.96%)p 0.00(  0.04%)
                                            0.9998 -0.0002  0.0002 -0.0113 -0.0113
                                           -0.0113
     2. (1.99940) BD ( 1) C   1 - H   3  
                ( 60.16%)   0.7756* C   1 s( 25.00%)p 3.00( 74.95%)d 0.00(  0.05%)
                                            0.0000  0.5000  0.0000  0.0000  0.0000
                                           -0.4998  0.0000  0.0000  0.0000 -0.4998
                                            0.0000  0.0000  0.0000  0.4998  0.0000
                                            0.0000  0.0000  0.0134 -0.0134 -0.0134
                                            0.0000  0.0000
                ( 39.84%)   0.6312* H   3 s( 99.96%)p 0.00(  0.04%)
                                            0.9998 -0.0002  0.0002  0.0113  0.0113
                                           -0.0113
     3. (1.99940) BD ( 1) C   1 - H   4  
                ( 60.16%)   0.7756* C   1 s( 25.00%)p 3.00( 74.95%)d 0.00(  0.05%)
                                            0.0000  0.5000  0.0000  0.0000  0.0000
                                            0.4998  0.0000  0.0000  0.0000 -0.4998
                                            0.0000  0.0000  0.0000 -0.4998  0.0000
                                            0.0000  0.0000 -0.0134 -0.0134  0.0134
                                            0.0000  0.0000
                ( 39.84%)   0.6312* H   4 s( 99.96%)p 0.00(  0.04%)
                                            0.9998 -0.0002  0.0002 -0.0113  0.0113
                                            0.0113
     4. (1.99940) BD ( 1) C   1 - H   5  
                ( 60.16%)   0.7756* C   1 s( 25.00%)p 3.00( 74.95%)d 0.00(  0.05%)
                                            0.0000  0.5000  0.0000  0.0000  0.0000
                                           -0.4998  0.0000  0.0000  0.0000  0.4998
                                            0.0000  0.0000  0.0000 -0.4998  0.0000
                                            0.0000  0.0000 -0.0134  0.0134 -0.0134
                                            0.0000  0.0000
                ( 39.84%)   0.6312* H   5 s( 99.96%)p 0.00(  0.04%)
                                            0.9998 -0.0002  0.0002  0.0113 -0.0113
                                            0.0113
     5. (1.99949) CR ( 1) C   1           s(100.00%)
                                            1.0000 -0.0001  0.0000  0.0000  0.0000
                                           -0.0000  0.0000  0.0000  0.0000  0.0000
                                            0.0000  0.0000  0.0000 -0.0000  0.0000
                                            0.0000  0.0000 -0.0000  0.0000 -0.0000
                                            0.0000  0.0000
     6. (0.00000) RY*( 1) C   1           s(100.00%)
     7. (0.00000) RY*( 2) C   1           s(100.00%)
     8. (0.00000) RY*( 3) C   1           s(100.00%)
     9. (0.00000) RY*( 4) C   1           s(  0.00%)p 1.00(100.00%)
    10. (0.00000) RY*( 5) C   1           s(  0.00%)p 1.00(100.00%)
    11. (0.00000) RY*( 6) C   1           s(  0.00%)p 1.00(100.00%)
    12. (0.00000) RY*( 7) C   1           s(  0.00%)p 1.00(100.00%)
    13. (0.00000) RY*( 8) C   1           s(  0.00%)p 1.00(100.00%)
    14. (0.00000) RY*( 9) C   1           s(  0.00%)p 1.00(100.00%)
    15. (0.00000) RY*(10) C   1           s(  0.00%)p 1.00(100.00%)
    16. (0.00000) RY*(11) C   1           s(  0.00%)p 1.00(100.00%)
    17. (0.00000) RY*(12) C   1           s(  0.00%)p 1.00(100.00%)
    18. (0.00000) RY*(13) C   1           s(  0.00%)p 1.00(  0.07%)d99.99( 99.93%)
    19. (0.00000) RY*(14) C   1           s(  0.00%)p 1.00(  0.07%)d99.99( 99.93%)
    20. (0.00000) RY*(15) C   1           s(  0.00%)p 1.00(  0.07%)d99.99( 99.93%)
    21. (0.00000) RY*(16) C   1           s(  0.00%)p 0.00(  0.00%)d 1.00(100.00%)
    22. (0.00000) RY*(17) C   1           s(  0.00%)p 0.00(  0.00%)d 1.00(100.00%)
    23. (0.00017) RY*( 1) H   2           s( 85.46%)p 0.17( 14.54%)
                                           -0.0072  0.9233 -0.0458 -0.2201 -0.2201
                                           -0.2201
    24. (0.00009) RY*( 2) H   2           s(  0.00%)p 1.00(100.00%)
    25. (0.00009) RY*( 3) H   2           s(  0.00%)p 1.00(100.00%)
    26. (0.00007) RY*( 4) H   2           s( 97.84%)p 0.02(  2.16%)
    27. (0.00000) RY*( 5) H   2           s( 16.73%)p 4.98( 83.27%)
    28. (0.00017) RY*( 1) H   3           s( 85.46%)p 0.17( 14.54%)
                                           -0.0072  0.9233 -0.0458  0.2201  0.2201
                                           -0.2201
    29. (0.00009) RY*( 2) H   3           s(  0.00%)p 1.00(100.00%)
    30. (0.00009) RY*( 3) H   3           s(  0.00%)p 1.00(100.00%)
    31. (0.00007) RY*( 4) H   3           s( 97.84%)p 0.02(  2.16%)
    32. (0.00000) RY*( 5) H   3           s( 16.73%)p 4.98( 83.27%)
    33. (0.00017) RY*( 1) H   4           s( 85.46%)p 0.17( 14.54%)
                                           -0.0072  0.9233 -0.0458 -0.2201  0.2201
                                            0.2201
    34. (0.00009) RY*( 2) H   4           s(  0.00%)p 1.00(100.00%)
    35. (0.00009) RY*( 3) H   4           s(  0.00%)p 1.00(100.00%)
    36. (0.00007) RY*( 4) H   4           s( 97.84%)p 0.02(  2.16%)
    37. (0.00000) RY*( 5) H   4           s( 16.73%)p 4.98( 83.27%)
    38. (0.00017) RY*( 1) H   5           s( 85.46%)p 0.17( 14.54%)
                                           -0.0072  0.9233 -0.0458  0.2201 -0.2201
                                            0.2201
    39. (0.00009) RY*( 2) H   5           s(  0.00%)p 1.00(100.00%)
    40. (0.00009) RY*( 3) H   5           s(  0.00%)p 1.00(100.00%)
    41. (0.00007) RY*( 4) H   5           s( 97.84%)p 0.02(  2.16%)
    42. (0.00000) RY*( 5) H   5           s( 16.73%)p 4.98( 83.27%)
    43. (0.00030) BD*( 1) C   1 - H   2  
                ( 39.84%)   0.6312* C   1 s( 25.00%)p 3.00( 74.95%)d 0.00(  0.05%)
                                           -0.0000 -0.5000 -0.0000 -0.0000 -0.0000
                                           -0.4998 -0.0000 -0.0000 -0.0000 -0.4998
                                           -0.0000 -0.0000 -0.0000 -0.4998 -0.0000
                                           -0.0000 -0.0000 -0.0134 -0.0134 -0.0134
                                           -0.0000 -0.0000
                ( 60.16%)  -0.7756* H   2 s( 99.96%)p 0.00(  0.04%)
                                           -0.9998  0.0002 -0.0002  0.0113  0.0113
                                            0.0113
    44. (0.00030) BD*( 1) C   1 - H   3  
                ( 39.84%)   0.6312* C   1 s( 25.00%)p 3.00( 74.95%)d 0.00(  0.05%)
                                           -0.0000 -0.5000 -0.0000 -0.0000 -0.0000
                                            0.4998 -0.0000 -0.0000 -0.0000  0.4998
                                           -0.0000 -0.0000 -0.0000 -0.4998 -0.0000
                                           -0.0000 -0.0000 -0.0134  0.0134  0.0134
                                           -0.0000 -0.0000
                ( 60.16%)  -0.7756* H   3 s( 99.96%)p 0.00(  0.04%)
                                           -0.9998  0.0002 -0.0002 -0.0113 -0.0113
                                            0.0113
    45. (0.00030) BD*( 1) C   1 - H   4  
                ( 39.84%)   0.6312* C   1 s( 25.00%)p 3.00( 74.95%)d 0.00(  0.05%)
                                           -0.0000 -0.5000 -0.0000 -0.0000 -0.0000
                                           -0.4998 -0.0000 -0.0000 -0.0000  0.4998
                                           -0.0000 -0.0000 -0.0000  0.4998 -0.0000
                                           -0.0000 -0.0000  0.0134  0.0134 -0.0134
                                           -0.0000 -0.0000
                ( 60.16%)  -0.7756* H   4 s( 99.96%)p 0.00(  0.04%)
                                           -0.9998  0.0002 -0.0002  0.0113 -0.0113
                                           -0.0113
    46. (0.00030) BD*( 1) C   1 - H   5  
                ( 39.84%)   0.6312* C   1 s( 25.00%)p 3.00( 74.95%)d 0.00(  0.05%)
                                           -0.0000 -0.5000 -0.0000 -0.0000 -0.0000
                                            0.4998 -0.0000 -0.0000 -0.0000 -0.4998
                                           -0.0000 -0.0000 -0.0000  0.4998 -0.0000
                                           -0.0000 -0.0000  0.0134 -0.0134  0.0134
                                           -0.0000 -0.0000
                ( 60.16%)  -0.7756* H   5 s( 99.96%)p 0.00(  0.04%)
                                           -0.9998  0.0002 -0.0002 -0.0113  0.0113
                                           -0.0113


 NHO Directionality and "Bond Bending" (deviations from line of nuclear centers)

         [Thresholds for printing:  angular deviation  >  1.0 degree]
                                    hybrid p-character > 25.0%
                                    orbital occupancy  >  0.10e

                                Line of Centers        Hybrid 1              Hybrid 2
                                ---------------  -------------------   ------------------
                NBO               Theta   Phi    Theta   Phi    Dev    Theta   Phi    Dev
 ========================================================================================
    None exceeding thresholds


 Second Order Perturbation Theory Analysis of Fock Matrix in NBO Basis

     Threshold for printing:   0.50 kcal/mol
                                                                              E(2)  E(j)-E(i) F(i,j)
         Donor NBO (i)                     Acceptor NBO (j)                 kcal/mol   a.u.    a.u. 
 ===================================================================================================

 within unit  1
   5. CR (   1) C   1                / 23. RY*(   1) H   2                    0.63   11.20    0.075
   5. CR (   1) C   1                / 28. RY*(   1) H   3                    0.63   11.20    0.075
   5. CR (   1) C   1                / 33. RY*(   1) H   4                    0.63   11.20    0.075
   5. CR (   1) C   1                / 38. RY*(   1) H   5                    0.63   11.20    0.075


 Natural Bond Orbitals (Summary):

                                                            Principal Delocalizations
           NBO                        Occupancy    Energy   (geminal,vicinal,remote)
 ====================================================================================
 Molecular unit  1  (CH4)
     1. BD (   1) C   1 - H   2          1.99940    -0.50462   
     2. BD (   1) C   1 - H   3          1.99940    -0.50462   
     3. BD (   1) C   1 - H   4          1.99940    -0.50462   
     4. BD (   1) C   1 - H   5          1.99940    -0.50462   
     5. CR (   1) C   1                  1.99949   -10.01245  23(v),28(v),33(v),38(v)
     6. RY*(   1) C   1                  0.00000     0.78596   
     7. RY*(   2) C   1                  0.00000    23.44864   
     8. RY*(   3) C   1                  0.00000     0.24054   
     9. RY*(   4) C   1                  0.00000     0.65685   
    10. RY*(   5) C   1                  0.00000     2.90017   
    11. RY*(   6) C   1                  0.00000     0.23274   
    12. RY*(   7) C   1                  0.00000     0.65685   
    13. RY*(   8) C   1                  0.00000     2.90017   
    14. RY*(   9) C   1                  0.00000     0.23274   
    15. RY*(  10) C   1                  0.00000     0.65685   
    16. RY*(  11) C   1                  0.00000     2.90017   
    17. RY*(  12) C   1                  0.00000     0.23274   
    18. RY*(  13) C   1                  0.00000     2.22427   
    19. RY*(  14) C   1                  0.00000     2.22427   
    20. RY*(  15) C   1                  0.00000     2.22427   
    21. RY*(  16) C   1                  0.00000     1.73765   
    22. RY*(  17) C   1                  0.00000     1.73765   
    23. RY*(   1) H   2                  0.00017     1.19231   
    24. RY*(   2) H   2                  0.00009     1.66069   
    25. RY*(   3) H   2                  0.00009     1.66069   
    26. RY*(   4) H   2                  0.00007     1.91559   
    27. RY*(   5) H   2                  0.00000     2.18527   
    28. RY*(   1) H   3                  0.00017     1.19231   
    29. RY*(   2) H   3                  0.00009     1.66069   
    30. RY*(   3) H   3                  0.00009     1.66069   
    31. RY*(   4) H   3                  0.00007     1.91559   
    32. RY*(   5) H   3                  0.00000     2.18527   
    33. RY*(   1) H   4                  0.00017     1.19231   
    34. RY*(   2) H   4                  0.00009     1.66069   
    35. RY*(   3) H   4                  0.00009     1.66069   
    36. RY*(   4) H   4                  0.00007     1.91559   
    37. RY*(   5) H   4                  0.00000     2.18527   
    38. RY*(   1) H   5                  0.00017     1.19231   
    39. RY*(   2) H   5                  0.00009     1.66069   
    40. RY*(   3) H   5                  0.00009     1.66069   
    41. RY*(   4) H   5                  0.00007     1.91559   
    42. RY*(   5) H   5                  0.00000     2.18527   
    43. BD*(   1) C   1 - H   2          0.00030     0.40217   
    44. BD*(   1) C   1 - H   3          0.00030     0.40217   
    45. BD*(   1) C   1 - H   4          0.00030     0.40217   
    46. BD*(   1) C   1 - H   5          0.00030     0.40217   
       -------------------------------
              Total Lewis    9.99708  ( 99.9708%)
        Valence non-Lewis    0.00121  (  0.0121%)
        Rydberg non-Lewis    0.00171  (  0.0171%)
       -------------------------------
            Total unit  1   10.00000  (100.0000%)
           Charge unit  1    0.00000


 NATURAL LOCALIZED MOLECULAR ORBITAL (NLMO) ANALYSIS:

 Maximum off-diagonal element of DM in NLMO basis: 5.16D-07 NIter=        17

 Hybridization/Polarization Analysis of NLMOs in NAO Basis:
 NLMO/Occupancy/Percent from Parent NBO/ Atomic Hybrid Contributions
 -------------------------------------------------------------------------------
     1. (2.00000)  99.9699%  BD ( 1) C   1 H   2      
                           60.150%  C    1 s( 24.13%)p 3.14( 75.82%)d 0.00(  0.05%)
                           39.826%  H    2 s( 99.96%)p 0.00(  0.04%)
     2. (2.00000)  99.9699%  BD ( 1) C   1 H   3      
                           60.150%  C    1 s( 24.13%)p 3.14( 75.82%)d 0.00(  0.05%)
                           39.826%  H    3 s( 99.96%)p 0.00(  0.04%)
     3. (2.00000)  99.9699%  BD ( 1) C   1 H   4      
                           60.150%  C    1 s( 24.13%)p 3.14( 75.82%)d 0.00(  0.05%)
                           39.826%  H    4 s( 99.96%)p 0.00(  0.04%)
     4. (2.00000)  99.9699%  BD ( 1) C   1 H   5      
                           60.150%  C    1 s( 24.13%)p 3.14( 75.82%)d 0.00(  0.05%)
                           39.826%  H    5 s( 99.96%)p 0.00(  0.04%)
     5. (2.00000)  99.9743%  CR ( 1) C   1            
                           99.974%  C    1 s(100.00%)p 0.00(  0.00%)d 0.00(  0.00%)

 Individual LMO bond orders greater than 0.002 in magnitude,
 with the overlap between the hybrids in the NLMO given:

 Atom I / Atom J / NLMO / Bond Order / Hybrid Overlap /
    1       2       1     0.7965151       0.7973291
    1       3       2     0.7965151       0.7973291
    1       4       3     0.7965151       0.7973291
    1       5       4     0.7965151       0.7973291


 Atom-Atom Net Linear NLMO/NPA Bond Orders:                                    

     Atom    1       2       3       4       5
     ---- ------  ------  ------  ------  ------
   1.  C  0.0000  0.7969  0.7969  0.7969  0.7969
   2.  H  0.7969  0.0000  0.0008  0.0008  0.0008
   3.  H  0.7969  0.0008  0.0000  0.0008  0.0008
   4.  H  0.7969  0.0008  0.0008  0.0000  0.0008
   5.  H  0.7969  0.0008  0.0008  0.0008  0.0000


 Linear NLMO/NPA Bond Orders, Totals by Atom:                                  

     Atom    1
     ---- ------
   1.  C  3.1875
   2.  H  0.7992
   3.  H  0.7992
   4.  H  0.7992
   5.  H  0.7992
 Sorting of NBOs:                    5    4    3    1    2   11   14   17    8   43
 Sorting of NBOs:                   44   46   45    9   15   12    6   33   23   38
 Sorting of NBOs:                   28   29   30   40   34   24   39   35   25   22
 Sorting of NBOs:                   21   26   31   36   41   42   37   32   27   19
 Sorting of NBOs:                   20   18   10   13   16    7
 Reordering of NBOs for storage:     5    4    3    1    2   43   44   46   45   11
 Reordering of NBOs for storage:    14   17    8    9   15   12    6   33   23   38
 Reordering of NBOs for storage:    28   29   30   40   34   24   39   35   25   22
 Reordering of NBOs for storage:    21   26   31   36   41   42   37   32   27   19
 Reordering of NBOs for storage:    20   18   10   13   16    7
 Labels of output orbitals:  CR  BD  BD  BD  BD  BD* BD* BD* BD* RY* RY* RY* RY* RY* RY* RY* RY* RY* RY* RY* 
 Labels of output orbitals:  RY* RY* RY* RY* RY* RY* RY* RY* RY* RY* RY* RY* RY* RY* RY* RY* RY* RY* RY* RY* 
 Labels of output orbitals:  RY* RY* RY* RY* RY* RY* 
 GSVD:  LWork=       -2009 too small for GESVD, short by        9020 words or        9020 for optimal perf.
 Leave Link  607 at Tue Jun 30 11:52:34 2026, MaxMem=   104857600 cpu:               0.3 elap:               0.3
 (Enter /sw/apps/software/noarch/Gaussian/g16.B01/g16/l9999.exe)
 1\1\GINC-LOGIN02\FOpt\RB3LYP\6-311+G(d,p)\C1H4\NHCAHSCH\30-Jun-2026\0\
 \#p B3LYP/6-311+G(d,p) OPT Pop=(Full,NBORead,SaveNBOs)\\Geometry optim
 ization + ground-state NBO analysis\\0,1\C,-0.0000001,0.,0.\H,-0.00000
 07895,0.0000000326,1.0909210853\H,1.0285303927,0.0000001902,-0.3636397
 117\H,-0.5142651757,0.8907332247,-0.3636407134\H,-0.5142648274,-0.8907
 334476,-0.3636406601\\Version=ES64L-G16RevB.01\State=1-A1\HF=-40.53392
 76\RMSD=7.764e-10\RMSF=2.397e-06\Dipole=0.,0.,0.\Quadrupole=0.,0.,0.,0
 .,0.,0.\PG=TD [O(C1),4C3(H1)]\\@


 WAR ES EIN GOTT DER DIESE ZEICHEN SCHRIEB?
          - LUDWIG BOLTZMANN, QUOTING GOETHE, ABOUT MAXWELL'S EQUATIONS.
 Job cpu time:       0 days  0 hours  0 minutes  6.1 seconds.
 Elapsed time:       0 days  0 hours  0 minutes  6.2 seconds.
 File lengths (MBytes):  RWF=      6 Int=      0 D2E=      0 Chk=      1 Scr=      1
 Normal termination of Gaussian 16 at Tue Jun 30 11:52:34 2026.
