3
-10.0
H -0.00000000 0.00000001 1.45471461
C 0.00000000 -0.00000002 0.37537976
N 0.00000004 -0.00000023 9.21990563
3
-9.0
H -0.00000000 0.00000001 1.45471461
C 0.00000000 -0.00000002 0.37537976
N 0.00000004 -0.00000020 8.21990563
3
-8.0
H -0.00000000 0.00000001 1.45471461
C 0.00000000 -0.00000002 0.37537976
N 0.00000003 -0.00000018 7.21990563
3
-7.0
H -0.00000000 0.00000001 1.45471461
C 0.00000000 -0.00000002 0.37537976
N 0.00000003 -0.00000016 6.21990563
3
-6.0
H -0.00000000 0.00000001 1.45471461
C 0.00000000 -0.00000002 0.37537976
N 0.00000002 -0.00000013 5.21990563
3
-5.0
H -0.00000000 0.00000001 1.45471461
C 0.00000000 -0.00000002 0.37537976
N 0.00000002 -0.00000011 4.21990563
3
-4.0
H -0.00000000 0.00000001 1.45471461
C 0.00000000 -0.00000002 0.37537976
N 0.00000002 -0.00000009 3.21990563
3
-3.0
H -0.00000000 0.00000001 1.45471461
C 0.00000000 -0.00000002 0.37537976
N 0.00000001 -0.00000006 2.21990563
3
-2.0
H -0.00000000 0.00000001 1.45471461
C 0.00000000 -0.00000002 0.37537976
N 0.00000001 -0.00000004 1.21990563
3
-1.0
H -0.00000000 0.00000001 1.45471461
C 0.00000000 -0.00000002 0.37537976
N 0.00000000 -0.00000001 0.21990563
3
0.0
H -0.00000000 0.00000001 1.45471461
C 0.00000000 -0.00000002 0.37537976
N -0.00000000 0.00000001 -0.78009437
3
1.0
H -0.00000000 0.00000001 1.45471461
C 0.00000000 -0.00000002 0.37537976
N -0.00000001 0.00000003 -1.78009437
3
2.0
H -0.00000000 0.00000001 1.45471461
C 0.00000000 -0.00000002 0.37537976
N -0.00000001 0.00000006 -2.78009437
3
3.0
H -0.00000000 0.00000001 1.45471461
C 0.00000000 -0.00000002 0.37537976
N -0.00000001 0.00000008 -3.78009437
3
4.0
H -0.00000000 0.00000001 1.45471461
C 0.00000000 -0.00000002 0.37537976
N -0.00000002 0.00000010 -4.78009437
3
5.0
H -0.00000000 0.00000001 1.45471461
C 0.00000000 -0.00000002 0.37537976
N -0.00000002 0.00000013 -5.78009437
3
6.0
H -0.00000000 0.00000001 1.45471461
C 0.00000000 -0.00000002 0.37537976
N -0.00000003 0.00000015 -6.78009437
3
7.0
H -0.00000000 0.00000001 1.45471461
C 0.00000000 -0.00000002 0.37537976
N -0.00000003 0.00000017 -7.78009437
3
8.0
H -0.00000000 0.00000001 1.45471461
C 0.00000000 -0.00000002 0.37537976
N -0.00000004 0.00000020 -8.78009437
3
9.0
H -0.00000000 0.00000001 1.45471461
C 0.00000000 -0.00000002 0.37537976
N -0.00000004 0.00000022 -9.78009437
3
10.0
H -0.00000000 0.00000001 1.45471461
C 0.00000000 -0.00000002 0.37537976
N -0.00000005 0.00000024 -10.78009437
